LAMMPS (2 Aug 2023 - Development - bc02a7cc6)
units           lj
atom_style      full
boundary p p p

special_bonds lj/coul 1 1 1
newton on on

# save an extra atom type for bond particles
read_data data.chain
Reading data file ...
  orthogonal box = (0 0 0) to (10 10 10)
  2 by 2 by 2 MPI processor grid
  reading atoms ...
  3000 atoms
  reading velocities ...
  3000 velocities
  scanning bonds ...
  1 = max bonds/atom
  reading bonds ...
  2700 bonds
Finding 1-2 1-3 1-4 neighbors ...
  special bond factors lj:    1        1        1       
  special bond factors coul:  1        1        1       
     2 = max # of 1-2 neighbors
     2 = max # of special neighbors
  special bonds CPU = 0.001 seconds
  read_data CPU = 0.060 seconds

neighbor        2.0 bin
neigh_modify    every 10 check yes

bond_style      harmonic
bond_coeff      * 225.0 0.85

comm_modify vel yes
comm_modify cutoff 3.6

# must use pair hybrid, since srp bond particles
# do not interact with other atoms types
pair_style      hybrid dpd 1.0 1.0 373692 srp 0.8 1 mid
pair_coeff      1 1 dpd 60.0 4.5 1.0
pair_coeff      1 2 none
pair_coeff      2 2 srp 100.0

# auto normalization of thermo quantities is turned off by pair srp
# just divide by natoms
variable        natoms equal count(all)
variable        nPotEng equal c_thermo_pe/v_natoms

thermo 50
thermo_style custom step temp pe v_nPotEng press atoms v_natoms lx ly lz

fix  1 all nve
timestep        0.01

restart 500	mid-run-*.restart

run          1000

CITE-CITE-CITE-CITE-CITE-CITE-CITE-CITE-CITE-CITE-CITE-CITE-CITE

Your simulation uses code contributions which should be cited:

- pair srp command: doi:10.1063/1.3698476

@Article{Sirk2012
 author = {T. W. Sirk and Y. R. Sliozberg and J. K. Brennan and M. Lisal and J. W. Andzelm},
 title = {An Enhanced Entangled Polymer Model for Dissipative Particle Dynamics},
 journal = {J.~Chem.\ Phys.},
 year =    2012,
 volume =  136,
 pages =   {134903}
}

CITE-CITE-CITE-CITE-CITE-CITE-CITE-CITE-CITE-CITE-CITE-CITE-CITE

Using type 2 for bond particles
Thermo normalization turned off by pair srp (src/MISC/pair_srp.cpp:478)
Generated 0 of 1 mixed pair_coeff terms from geometric mixing rule
Neighbor list info ...
  update: every = 10 steps, delay = 0 steps, check = yes
  max neighbors/atom: 2000, page size: 100000
  master list distance cutoff = 3
  ghost atom cutoff = 3.6
  binsize = 1.5, bins = 7 7 7
  4 neighbor lists, perpetual/occasional/extra = 4 0 0
  (1) pair dpd, perpetual, skip from (3)
      attributes: half, newton on
      pair build: skip
      stencil: none
      bin: none
  (2) pair srp, perpetual, skip from (4)
      attributes: half, newton on, cut 2.8
      pair build: skip
      stencil: none
      bin: none
  (3) neighbor class addition, perpetual
      attributes: half, newton on
      pair build: half/bin/newton
      stencil: half/bin/3d
      bin: standard
  (4) neighbor class addition, perpetual, trim from (3)
      attributes: half, newton on, cut 2.8
      pair build: trim
      stencil: none
      bin: none
Removed/inserted 0/2700 bond particles. (src/MISC/fix_srp.cpp:246)
Per MPI rank memory allocation (min/avg/max) = 9.775 | 9.776 | 9.778 Mbytes
   Step          Temp          PotEng       v_nPotEng        Press         Atoms       v_natoms          Lx             Ly             Lz      
         0   0.98262092     31772.336      10.590779      60.819362           5700   3000           10             10             10           
        50   0.97241438     31759.287      10.586429      61.367472           5700   3000           10             10             10           
       100   1.0062332      31645.723      10.548574      61.501374           5700   3000           10             10             10           
       150   0.99541493     31730.846      10.576949      61.167376           5700   3000           10             10             10           
       200   0.99768804     31742.954      10.580985      61.04773            5700   3000           10             10             10           
       250   1.0304037      31568.142      10.522714      61.232534           5700   3000           10             10             10           
       300   1.0122993      31750.675      10.583558      61.513418           5700   3000           10             10             10           
       350   0.98675503     31776.76       10.592253      61.231252           5700   3000           10             10             10           
       400   0.99597534     31730.726      10.576909      61.197976           5700   3000           10             10             10           
       450   1.0109687      31758.073      10.586024      61.021251           5700   3000           10             10             10           
       500   1.0096893      31824.824      10.608275      61.594906           5700   3000           10             10             10           
       550   1.0131316      31784.152      10.594717      61.463186           5700   3000           10             10             10           
       600   0.99236704     31810.366      10.603455      60.976638           5700   3000           10             10             10           
       650   0.99973417     31756.73       10.585577      61.051456           5700   3000           10             10             10           
       700   0.9741763      31750.036      10.583345      61.402777           5700   3000           10             10             10           
       750   0.98266747     31737.369      10.579123      61.407049           5700   3000           10             10             10           
       800   0.99681078     31734.644      10.578215      61.222643           5700   3000           10             10             10           
       850   1.0098458      31673.122      10.557707      61.32937            5700   3000           10             10             10           
       900   1.0204083      31767.939      10.589313      60.80778            5700   3000           10             10             10           
       950   1.0083858      31696.306      10.565435      61.384838           5700   3000           10             10             10           
      1000   1.015518       31834.079      10.61136       60.487953           5700   3000           10             10             10           
Deleted 2700 atoms, new total = 3000
Loop time of 3.9896 on 8 procs for 1000 steps with 3000 atoms

Performance: 216562.888 tau/day, 250.651 timesteps/s, 751.954 katom-step/s
94.9% CPU use with 8 MPI tasks x no OpenMP threads

MPI task timing breakdown:
Section |  min time  |  avg time  |  max time  |%varavg| %total
---------------------------------------------------------------
Pair    | 1.0052     | 1.405      | 2.1112     |  34.7 | 35.22
Bond    | 0.0070383  | 0.010205   | 0.014392   |   3.0 |  0.26
Neigh   | 0.99905    | 1.0022     | 1.0038     |   0.2 | 25.12
Comm    | 0.78499    | 1.4895     | 1.8799     |  33.4 | 37.34
Output  | 0.0061376  | 0.0067816  | 0.0071198  |   0.5 |  0.17
Modify  | 0.020536   | 0.024485   | 0.032647   |   2.6 |  0.61
Other   |            | 0.05138    |            |       |  1.29

Nlocal:            375 ave         381 max         369 min
Histogram: 1 0 1 1 1 2 0 0 0 2
Nghost:         5088.5 ave        5107 max        5074 min
Histogram: 2 0 1 2 0 0 1 0 1 1
Neighs:              0 ave           0 max           0 min
Histogram: 8 0 0 0 0 0 0 0 0 0

Total # of neighbors = 0
Ave neighs/atom = 0
Ave special neighs/atom = 1.8
Neighbor list builds = 23
Dangerous builds = 0

write_restart   end-run.restart
System init for write_restart ...
Using type 2 for bond particles
Thermo normalization turned off by pair srp (src/MISC/pair_srp.cpp:478)
Generated 0 of 1 mixed pair_coeff terms from geometric mixing rule
Total wall time: 0:00:04
