LAMMPS (2 Aug 2023 - Development - bc02a7cc6)
# GayBerne ellipsoids in LJ background fluid

units	     lj
atom_style   ellipsoid
dimension    2

lattice	     sq 0.02
Lattice spacing in x,y,z = 7.0710678 7.0710678 7.0710678
region	     box block 0 20 0 20 -0.5 0.5
create_box   2 box
Created orthogonal box = (0 0 -3.5355339) to (141.42136 141.42136 3.5355339)
  4 by 2 by 1 MPI processor grid
create_atoms 1 box
Created 400 atoms
  using lattice units in orthogonal box = (0 0 -3.5355339) to (141.42136 141.42136 3.5355339)
  create_atoms CPU = 0.002 seconds

set	     group all type/fraction 2 0.1 95392
Setting atom values ...
  45 settings made for type/fraction
set 	     type 1 mass 1.0
Setting atom values ...
  355 settings made for mass
set 	     type 2 mass 1.5
Setting atom values ...
  45 settings made for mass
set 	     type 1 shape 1 1 1
Setting atom values ...
  355 settings made for shape
set 	     type 2 shape 3 1 1
Setting atom values ...
  45 settings made for shape
set	     group all quat/random 18238
Setting atom values ...
  400 settings made for quat/random

compute	     rot all temp/asphere
group	     spheroid type 1
355 atoms in group spheroid
variable     dof equal count(spheroid)+2
compute_modify rot extra ${dof}
compute_modify rot extra 357

velocity     all create 2.4 87287 loop geom

pair_style   gayberne 1.0 3.0 1.0 4.0
pair_coeff   1 1 3.0 1.0 1 1 1 1 1 1 2.5
pair_coeff   1 2 3.0 1.0 1 1 1 0 0 0
pair_coeff   2 2 1.0 1.0 1 1 0.2 0 0 0

neighbor     0.8 bin

thermo_style custom step c_rot epair etotal press vol
thermo	     100

timestep     0.002

compute	     q all property/atom quatw quati quatj quatk

#dump	     1 all custom 100 dump.ellipse.gayberne #	     id type x y z c_q[1] c_q[2] c_q[3] c_q[4]

#dump	     2 all image 100 image.*.jpg type type #	     zoom 1.6 center d 0.5 0.5 0.5
#dump_modify  2 pad 4 adiam 1 1.0 adiam 2 2.0

#dump	     3 all movie 100 movie.mpg type type #	     zoom 1.6 center d 0.5 0.5 0.5
#dump_modify  3 pad 4 adiam 1 1.0 adiam 2 2.0

fix	     1 all npt/asphere temp 2.0 2.0 0.1 iso 0.0 1.0 1.0 	       mtk no pchain 0 tchain 1
fix	     2 all enforce2d

compute_modify 1_temp extra ${dof}
compute_modify 1_temp extra 357

# equilibrate to shrink box around dilute system

run	     2000

CITE-CITE-CITE-CITE-CITE-CITE-CITE-CITE-CITE-CITE-CITE-CITE-CITE

Your simulation uses code contributions which should be cited:

- pair gayberne command: doi:10.1063/1.3058435

@Article{Brown09,
 author =  {W. M. Brown and M. K. Petersen and S. J. Plimpton and G. S. Grest},
 title =   {Liquid Crystal Nanodroplets in Solution},
 journal = {J.~Chem.\ Phys.},
 year =    2009,
 volume =  130,
 number =  4,
 pages =   {044901}
}

CITE-CITE-CITE-CITE-CITE-CITE-CITE-CITE-CITE-CITE-CITE-CITE-CITE

Generated 0 of 1 mixed pair_coeff terms from geometric mixing rule
Neighbor list info ...
  update: every = 1 steps, delay = 0 steps, check = yes
  max neighbors/atom: 2000, page size: 100000
  master list distance cutoff = 4.8
  ghost atom cutoff = 4.8
  binsize = 2.4, bins = 59 59 3
  1 neighbor lists, perpetual/occasional/extra = 1 0 0
  (1) pair gayberne, perpetual
      attributes: half, newton on
      pair build: half/bin/atomonly/newton
      stencil: half/bin/2d
      bin: standard
Per MPI rank memory allocation (min/avg/max) = 4.737 | 4.737 | 4.737 Mbytes
   Step         c_rot          E_pair         TotEng         Press          Volume    
         0   2.2718861      0              2.394          0.04788        20000        
       100   1.7443419      0              1.8381003      0.035765442    20557.278    
       200   2.2768798      0              2.3992621      0.046544845    20618.928    
       300   1.8573086      0              1.9571389      0.04239709     18464.842    
       400   2.1707875     -0.00045989278  2.2870073      0.066725499    13701.839    
       500   1.9710982     -0.014545321    2.0486111      0.12205188     8490.5214    
       600   2.0818888     -0.21572832     1.8356955      0.22333255     4697.3035    
       700   2.1551458     -0.68175426     1.4003368      0.60385996     2541.157     
       800   1.8879651     -1.6357045      0.21794544     1.0826917      1444.4484    
       900   2.1993533     -3.0664068     -0.91036919     3.2142529      925.96691    
      1000   1.4285977     -4.3962037     -2.9651113      3.1830461      744.91324    
      1100   1.933074      -4.9398703     -3.0147256      1.4694937      715.30906    
      1200   2.0872875     -4.5711608     -2.4689861      1.4091154      757.68606    
      1300   1.8950043     -4.1568789     -2.2487345      0.19138859     846.69407    
      1400   2.1773467     -3.7905723     -1.6164698      0.55639059     930.77026    
      1500   1.934954      -3.5505876     -1.6187812      0.2572587      1020.2803    
      1600   2.083004      -3.2707357     -1.1794873      0.68661802     1088.5587    
      1700   1.9434093     -3.2434441     -1.3043926      0.72465776     1136.9866    
      1800   1.9731416     -3.2692426     -1.3364608      0.52887379     1162.1022    
      1900   2.0618126     -3.2264372     -1.162807       0.93455597     1155.8306    
      2000   1.894614      -3.3964158     -1.4932323      0.69021876     1125.7713    
Loop time of 0.340129 on 8 procs for 2000 steps with 400 atoms

Performance: 1016085.535 tau/day, 5880.125 timesteps/s, 2.352 Matom-step/s
99.2% CPU use with 8 MPI tasks x no OpenMP threads

MPI task timing breakdown:
Section |  min time  |  avg time  |  max time  |%varavg| %total
---------------------------------------------------------------
Pair    | 0.088215   | 0.11919    | 0.15802    |   6.6 | 35.04
Neigh   | 0.0039545  | 0.0058344  | 0.0076167  |   2.1 |  1.72
Comm    | 0.074758   | 0.11414    | 0.14352    |   6.5 | 33.56
Output  | 0.00096764 | 0.0010433  | 0.001319   |   0.3 |  0.31
Modify  | 0.078807   | 0.081364   | 0.085837   |   0.8 | 23.92
Other   |            | 0.01855    |            |       |  5.46

Nlocal:             50 ave          57 max          34 min
Histogram: 1 1 0 0 0 0 1 0 1 4
Nghost:          120.5 ave         131 max         109 min
Histogram: 1 1 0 1 0 1 2 0 1 1
Neighs:        377.625 ave         484 max         205 min
Histogram: 1 1 0 0 1 0 0 1 3 1

Total # of neighbors = 3021
Ave neighs/atom = 7.5525
Neighbor list builds = 351
Dangerous builds = 0

# run dynamics on dense system

unfix	     1
fix	     1 all nve/asphere

run	     2000
Generated 0 of 1 mixed pair_coeff terms from geometric mixing rule
Per MPI rank memory allocation (min/avg/max) = 4.738 | 4.738 | 4.738 Mbytes
   Step         c_rot          E_pair         TotEng         Press          Volume    
      2000   1.894614      -3.3964158     -1.4932323      0.69021876     1125.7713    
      2100   1.8880098     -3.3875135     -1.4857102      0.21017295     1125.7713    
      2200   1.9098636     -3.4103342     -1.5286928      0.58806421     1125.7713    
      2300   1.9069019     -3.4099452     -1.610028       0.63472553     1125.7713    
      2400   1.9773105     -3.4856992     -1.5268537      0.68904915     1125.7713    
      2500   2.002758      -3.514459      -1.4900206      0.59925387     1125.7713    
      2600   1.9616626     -3.4744358     -1.5230914      0.26873715     1125.7713    
      2700   1.8601139     -3.3625724     -1.4872109      0.68399846     1125.7713    
      2800   1.8194352     -3.3190945     -1.5148091      0.62534706     1125.7713    
      2900   1.8465202     -3.3451778     -1.550824       0.60150847     1125.7713    
      3000   1.8894644     -3.3918102     -1.5180287      0.61216981     1125.7713    
      3100   1.8667653     -3.3664847     -1.5276015      0.54243735     1125.7713    
      3200   1.8233934     -3.3203875     -1.5178155      0.82842399     1125.7713    
      3300   1.7943654     -3.2895808     -1.4975297      0.56871114     1125.7713    
      3400   1.8278196     -3.3280822     -1.5068786      1.0395254      1125.7713    
      3500   1.8534328     -3.3522338     -1.5157398      0.57905155     1125.7713    
      3600   1.7829612     -3.278478      -1.5315847      0.44779923     1125.7713    
      3700   1.757702      -3.253206      -1.4783769      0.87324584     1125.7713    
      3800   1.8404201     -3.3416383     -1.5199947      0.58904252     1125.7713    
      3900   1.9371647     -3.443998      -1.4836162      0.65731863     1125.7713    
      4000   1.951439      -3.4613358     -1.5161244      0.53429258     1125.7713    
Loop time of 0.268971 on 8 procs for 2000 steps with 400 atoms

Performance: 1284897.817 tau/day, 7435.751 timesteps/s, 2.974 Matom-step/s
99.7% CPU use with 8 MPI tasks x no OpenMP threads

MPI task timing breakdown:
Section |  min time  |  avg time  |  max time  |%varavg| %total
---------------------------------------------------------------
Pair    | 0.076327   | 0.1301     | 0.15928    |   6.7 | 48.37
Neigh   | 0.00082598 | 0.0012279  | 0.0014088  |   0.5 |  0.46
Comm    | 0.069113   | 0.098949   | 0.14902    |   7.3 | 36.79
Output  | 0.00088858 | 0.00097121 | 0.0012433  |   0.0 |  0.36
Modify  | 0.01249    | 0.018007   | 0.020773   |   1.7 |  6.69
Other   |            | 0.01971    |            |       |  7.33

Nlocal:             50 ave          62 max          36 min
Histogram: 1 1 0 0 0 2 1 2 0 1
Nghost:        119.625 ave         144 max         104 min
Histogram: 1 1 2 1 0 1 1 0 0 1
Neighs:        384.875 ave         524 max         220 min
Histogram: 1 1 0 0 0 2 2 1 0 1

Total # of neighbors = 3079
Ave neighs/atom = 7.6975
Neighbor list builds = 45
Dangerous builds = 0
Total wall time: 0:00:00
