LAMMPS (15 Sep 2022)
# GayBerne ellipsoids in LJ background fluid

units	     lj
atom_style   ellipsoid
dimension    2

lattice	     sq 0.02
Lattice spacing in x,y,z = 7.0710678 7.0710678 7.0710678
region	     box block 0 20 0 20 -0.5 0.5
create_box   2 box
Created orthogonal box = (0 0 -3.5355339) to (141.42136 141.42136 3.5355339)
  4 by 2 by 1 MPI processor grid
create_atoms 1 box
Created 400 atoms
  using lattice units in orthogonal box = (0 0 -3.5355339) to (141.42136 141.42136 3.5355339)
  create_atoms CPU = 0.001 seconds

set	     group all type/fraction 2 0.1 95392
Setting atom values ...
  45 settings made for type/fraction
set 	     type 1 mass 1.0
Setting atom values ...
  355 settings made for mass
set 	     type 2 mass 1.5
Setting atom values ...
  45 settings made for mass
set 	     type 1 shape 1 1 1
Setting atom values ...
  355 settings made for shape
set 	     type 2 shape 3 1 1
Setting atom values ...
  45 settings made for shape
set	     group all quat/random 18238
Setting atom values ...
  400 settings made for quat/random

compute	     rot all temp/asphere
group	     spheroid type 1
355 atoms in group spheroid
variable     dof equal count(spheroid)+2
compute_modify rot extra ${dof}
compute_modify rot extra 357

velocity     all create 2.4 87287 loop geom

pair_style   gayberne 1.0 3.0 1.0 4.0
pair_coeff   1 1 3.0 1.0 1 1 1 1 1 1 2.5
pair_coeff   1 2 3.0 1.0 1 1 1 0 0 0
pair_coeff   2 2 1.0 1.0 1 1 0.2 0 0 0

neighbor     0.8 bin

thermo_style custom step c_rot epair etotal press vol
thermo	     100

timestep     0.002

compute	     q all property/atom quatw quati quatj quatk

#dump	     1 all custom 100 dump.ellipse.gayberne #	     id type x y z c_q[1] c_q[2] c_q[3] c_q[4]

#dump	     2 all image 100 image.*.jpg type type #	     zoom 1.6 center d 0.5 0.5 0.5
#dump_modify  2 pad 4 adiam 1 1.0 adiam 2 2.0

#dump	     3 all movie 100 movie.mpg type type #	     zoom 1.6 center d 0.5 0.5 0.5
#dump_modify  3 pad 4 adiam 1 1.0 adiam 2 2.0

fix	     1 all npt/asphere temp 2.0 2.0 0.1 iso 0.0 1.0 1.0 	       mtk no pchain 0 tchain 1
fix	     2 all enforce2d

compute_modify 1_temp extra ${dof}
compute_modify 1_temp extra 357

# equilibrate to shrink box around dilute system

run	     2000

CITE-CITE-CITE-CITE-CITE-CITE-CITE-CITE-CITE-CITE-CITE-CITE-CITE

Your simulation uses code contributions which should be cited:

- pair gayberne command: doi:10.1063/1.3058435

@Article{Brown09,
 author =  {W. M. Brown and M. K. Petersen and S. J. Plimpton and G. S. Grest},
 title =   {Liquid Crystal Nanodroplets in Solution},
 journal = {J.~Chem.\ Phys.},
 year =    2009,
 volume =  130,
 number =  4,
 pages =   {044901}
}

CITE-CITE-CITE-CITE-CITE-CITE-CITE-CITE-CITE-CITE-CITE-CITE-CITE

Generated 0 of 1 mixed pair_coeff terms from geometric mixing rule
Neighbor list info ...
  update: every = 1 steps, delay = 0 steps, check = yes
  max neighbors/atom: 2000, page size: 100000
  master list distance cutoff = 4.8
  ghost atom cutoff = 4.8
  binsize = 2.4, bins = 59 59 3
  1 neighbor lists, perpetual/occasional/extra = 1 0 0
  (1) pair gayberne, perpetual
      attributes: half, newton on
      pair build: half/bin/atomonly/newton
      stencil: half/bin/2d
      bin: standard
Per MPI rank memory allocation (min/avg/max) = 4.737 | 4.737 | 4.737 Mbytes
   Step         c_rot          E_pair         TotEng         Press          Volume    
         0   2.2718861      0              2.394          0.04788        20000        
       100   1.7443419      0              1.8381003      0.035765442    20557.278    
       200   2.2768798      0              2.3992621      0.046544845    20618.928    
       300   1.8573086      0              1.9571389      0.04239709     18464.842    
       400   2.1707875     -0.00045989278  2.2870073      0.066725499    13701.839    
       500   1.9710982     -0.014545321    2.0486111      0.12205188     8490.5214    
       600   2.0818888     -0.21572832     1.8356955      0.22333255     4697.3035    
       700   2.1551458     -0.68175426     1.4003368      0.60385996     2541.157     
       800   1.8879651     -1.6357045      0.21794544     1.0826917      1444.4484    
       900   2.1993533     -3.0664068     -0.91036919     3.2142529      925.96691    
      1000   1.4285977     -4.3962037     -2.9651113      3.1830461      744.91324    
      1100   1.933074      -4.9398703     -3.0147256      1.4694937      715.30906    
      1200   2.0872875     -4.5711608     -2.4689861      1.4091154      757.68606    
      1300   1.8950043     -4.1568789     -2.2487345      0.19138859     846.69407    
      1400   2.1773467     -3.7905723     -1.6164698      0.55639059     930.77026    
      1500   1.934954      -3.5505876     -1.6187812      0.2572587      1020.2803    
      1600   2.083004      -3.2707357     -1.1794873      0.68661802     1088.5587    
      1700   1.9434093     -3.2434441     -1.3043926      0.72465775     1136.9866    
      1800   1.9731416     -3.2692426     -1.3364608      0.52887378     1162.1022    
      1900   2.0618126     -3.2264372     -1.162807       0.93455596     1155.8306    
      2000   1.894614      -3.3964158     -1.4932323      0.6902187      1125.7713    
Loop time of 0.433415 on 8 procs for 2000 steps with 400 atoms

Performance: 797388.607 tau/day, 4614.517 timesteps/s, 1.846 Matom-step/s
98.7% CPU use with 8 MPI tasks x no OpenMP threads

MPI task timing breakdown:
Section |  min time  |  avg time  |  max time  |%varavg| %total
---------------------------------------------------------------
Pair    | 0.14308    | 0.179      | 0.2292     |   5.6 | 41.30
Neigh   | 0.0053568  | 0.0065868  | 0.0079879  |   0.9 |  1.52
Comm    | 0.0722     | 0.11645    | 0.15926    |   7.9 | 26.87
Output  | 0.00097083 | 0.0013327  | 0.0037756  |   2.5 |  0.31
Modify  | 0.096684   | 0.10687    | 0.13051    |   3.8 | 24.66
Other   |            | 0.02317    |            |       |  5.35

Nlocal:             50 ave          57 max          34 min
Histogram: 1 1 0 0 0 0 1 0 1 4
Nghost:          120.5 ave         131 max         109 min
Histogram: 1 1 0 1 0 1 2 0 1 1
Neighs:        377.625 ave         484 max         205 min
Histogram: 1 1 0 0 1 0 0 1 3 1

Total # of neighbors = 3021
Ave neighs/atom = 7.5525
Neighbor list builds = 351
Dangerous builds = 0

# run dynamics on dense system

unfix	     1
fix	     1 all nve/asphere

run	     2000
Generated 0 of 1 mixed pair_coeff terms from geometric mixing rule
Per MPI rank memory allocation (min/avg/max) = 4.738 | 4.738 | 4.738 Mbytes
   Step         c_rot          E_pair         TotEng         Press          Volume    
      2000   1.894614      -3.3964158     -1.4932323      0.6902187      1125.7713    
      2100   1.8880098     -3.3875135     -1.4857102      0.21017294     1125.7713    
      2200   1.9098636     -3.4103342     -1.5286928      0.58806417     1125.7713    
      2300   1.9069018     -3.4099451     -1.6100279      0.63472589     1125.7713    
      2400   1.9773109     -3.4856997     -1.5268537      0.68904687     1125.7713    
      2500   2.0027579     -3.5144589     -1.4900207      0.59925518     1125.7713    
      2600   1.9616624     -3.4744356     -1.5230913      0.26873289     1125.7713    
      2700   1.8601171     -3.3625757     -1.487211       0.68398994     1125.7713    
      2800   1.8194246     -3.3190833     -1.5148082      0.62536526     1125.7713    
      2900   1.8464955     -3.3451511     -1.5508102      0.60166971     1125.7713    
      3000   1.8894979     -3.3918483     -1.518039       0.61222414     1125.7713    
      3100   1.866582      -3.3664079     -1.5276781      0.54302596     1125.7713    
      3200   1.8232546     -3.320233      -1.5178539      0.82794729     1125.7713    
      3300   1.7947627     -3.2899949     -1.4973891      0.56652762     1125.7713    
      3400   1.8241555     -3.324321      -1.5068796      1.0549736      1125.7713    
      3500   1.8609165     -3.3600105     -1.5103644      0.57735958     1125.7713    
      3600   1.7683884     -3.2622336     -1.527379       0.49791735     1125.7713    
      3700   1.7885384     -3.2854265     -1.4804337      0.77404633     1125.7713    
      3800   1.8399464     -3.3411763     -1.5377049      0.47923956     1125.7713    
      3900   1.9025307     -3.4070932     -1.4886708      0.67920632     1125.7713    
      4000   1.9442158     -3.453463      -1.5131689      0.32921168     1125.7713    
Loop time of 0.426133 on 8 procs for 2000 steps with 400 atoms

Performance: 811015.138 tau/day, 4693.375 timesteps/s, 1.877 Matom-step/s
99.6% CPU use with 8 MPI tasks x no OpenMP threads

MPI task timing breakdown:
Section |  min time  |  avg time  |  max time  |%varavg| %total
---------------------------------------------------------------
Pair    | 0.13914    | 0.21873    | 0.29521    |   9.7 | 51.33
Neigh   | 0.0011513  | 0.0015906  | 0.0018568  |   0.7 |  0.37
Comm    | 0.082462   | 0.14463    | 0.2243     |  10.7 | 33.94
Output  | 0.0010081  | 0.001469   | 0.0035731  |   2.1 |  0.34
Modify  | 0.018263   | 0.024561   | 0.029382   |   2.4 |  5.76
Other   |            | 0.03515    |            |       |  8.25

Nlocal:             50 ave          62 max          35 min
Histogram: 1 1 0 0 0 2 1 2 0 1
Nghost:         119.25 ave         142 max         104 min
Histogram: 1 2 1 1 0 0 2 0 0 1
Neighs:        384.625 ave         542 max         219 min
Histogram: 1 1 0 0 1 2 1 1 0 1

Total # of neighbors = 3077
Ave neighs/atom = 7.6925
Neighbor list builds = 46
Dangerous builds = 0
Total wall time: 0:00:00
