LAMMPS (2 Aug 2023 - Development - bc02a7cc6)
units		real
atom_style	full

pair_style	lj/cut/tip4p/long 1 2 1 1 0.14714951 8
bond_style	class2
angle_style	harmonic
kspace_style	pppm/tip4p 0.0001

read_data	data.h2o-quantum
Reading data file ...
  orthogonal box = (-0.025952 -0.072222 0.103767) to (12.398448 12.352178 12.528167)
  2 by 2 by 2 MPI processor grid
  reading atoms ...
  192 atoms
  scanning bonds ...
  2 = max bonds/atom
  scanning angles ...
  1 = max angles/atom
  reading bonds ...
  128 bonds
  reading angles ...
  64 angles
Finding 1-2 1-3 1-4 neighbors ...
  special bond factors lj:    0        0        0       
  special bond factors coul:  0        0        0       
     2 = max # of 1-2 neighbors
     1 = max # of 1-3 neighbors
     1 = max # of 1-4 neighbors
     2 = max # of special neighbors
  special bonds CPU = 0.001 seconds
  read_data CPU = 0.014 seconds

pair_coeff  * 2  0.0     0.0
pair_coeff  1 1  0.1852  3.1589022

#q-tip4pf bond parameters
bond_coeff      1 0.9419 607.19354  -1388.6516 1852.577
angle_coeff     1 43.93  107.4

timestep	0.5

# mean velocity is higher than target T because of zero point energy
velocity        all create 800.0 1112 dist gaussian mom yes

thermo          100
thermo_style    custom step temp pe ke etotal

# some problem
fix	 1 all gle 6 300.0 300.0 31415 qt-300k.A noneq qt-300k.C
fix_modify 1 energy no

#dump		1 all atom 100 h2o-smart.lammpstrj

#dump		2 all image 1000 h2o-smart.*.jpg element element #		zoom 1.4
#dump_modify	2 pad 5 element O H

#dump		3 all movie 100 movie.mp4 element element #		zoom 1.4
#dump_modify	3 pad 5 element O H

run		10000
PPPM initialization ...
  extracting TIP4P info from pair style
  using 12-bit tables for long-range coulomb (src/kspace.cpp:342)
  G vector (1/distance) = 0.35241702
  grid = 10 10 10
  stencil order = 5
  estimated absolute RMS force accuracy = 0.022972221
  estimated relative force accuracy = 6.918016e-05
  using double precision FFTW3
  3d grid and FFT values/proc = 1728 200
WARNING: Communication cutoff 0 is shorter than a bond length based estimate of 3.4128499999999997. This may lead to errors. (src/comm.cpp:723)
WARNING: Increasing communication cutoff to 11.08905 for TIP4P pair style (src/KSPACE/pair_lj_cut_tip4p_long.cpp:484)
Generated 0 of 1 mixed pair_coeff terms from geometric mixing rule
Neighbor list info ...
  update: every = 1 steps, delay = 0 steps, check = yes
  max neighbors/atom: 2000, page size: 100000
  master list distance cutoff = 10.294299
  ghost atom cutoff = 11.08905
  binsize = 5.1471495, bins = 3 3 3
  1 neighbor lists, perpetual/occasional/extra = 1 0 0
  (1) pair lj/cut/tip4p/long, perpetual
      attributes: half, newton on
      pair build: half/bin/newton
      stencil: half/bin/3d
      bin: standard
Per MPI rank memory allocation (min/avg/max) = 14.78 | 14.78 | 14.79 Mbytes
   Step          Temp          PotEng         KinEng         TotEng    
         0   800           -397.88979      455.46778      57.577983    
       100   674.48863     -412.18523      384.00979     -28.175439    
       200   735.74662     -428.27807      418.8861      -9.3919748    
       300   696.97245     -401.13917      396.81062     -4.3285528    
       400   695.11378     -390.89144      395.75241      4.8609694    
       500   791.66029     -433.85958      450.71969      16.860108    
       600   713.64249     -407.92895      406.30145     -1.6274998    
       700   748.95738     -392.17677      426.40744      34.230673    
       800   750.55632     -444.90491      427.31777     -17.587134    
       900   665.43002     -418.87874      378.85242     -40.026327    
      1000   714.06283     -414.55878      406.54076     -8.0180179    
      1100   721.55306     -432.14143      410.80521     -21.336224    
      1200   708.78546     -412.98608      403.53617     -9.4499114    
      1300   705.2092      -424.01778      401.50008     -22.517698    
      1400   708.89274     -426.26149      403.59725     -22.664245    
      1500   677.53027     -375.96191      385.7415       9.7795983    
      1600   691.48534     -377.1828       393.68661      16.503813    
      1700   743.2884      -412.002        423.17989      11.177891    
      1800   616.05339     -361.41658      350.74058     -10.675995    
      1900   696.54684     -407.64799      396.5683      -11.079694    
      2000   676.9145      -345.67329      385.39093      39.71764     
      2100   768.34468     -386.52611      437.4453       50.919187    
      2200   774.50165     -383.93578      440.95068      57.014903    
      2300   748.18178     -355.91569      425.96586      70.050174    
      2400   793.39176     -360.4792       451.70547      91.226273    
      2500   803.70623     -368.70855      457.57786      88.869311    
      2600   832.49844     -396.83438      473.97027      77.135889    
      2700   707.68453     -330.94906      402.90937      71.960309    
      2800   781.09386     -386.9035       444.70385      57.800356    
      2900   734.54931     -405.97422      418.20442      12.230201    
      3000   851.18505     -418.659        484.6092       65.950199    
      3100   732.64896     -356.0044       417.12249      61.118088    
      3200   814.67012     -394.8337       463.81999      68.986289    
      3300   741.38979     -388.42572      422.09895      33.673227    
      3400   748.41179     -373.04703      426.09681      53.049787    
      3500   807.63273     -375.65272      459.81335      84.160634    
      3600   817.16922     -358.75717      465.24281      106.48563    
      3700   782.68749     -395.80946      445.61116      49.801707    
      3800   759.6254      -352.48755      432.48111      79.993567    
      3900   828.05729     -385.06769      471.44176      86.374075    
      4000   761.1679      -398.97444      433.35932      34.384874    
      4100   735.62154     -389.81379      418.81488      29.001092    
      4200   776.60395     -380.781        442.14759      61.366593    
      4300   797.11123     -403.3739       453.8231       50.449197    
      4400   698.32731     -353.14507      397.58198      44.436913    
      4500   746.01773     -398.84735      424.73379      25.886441    
      4600   738.75587     -426.62023      420.59936     -6.0208621    
      4700   721.05763     -383.9626       410.52314      26.560538    
      4800   746.92066     -390.11553      425.24786      35.132333    
      4900   684.23773     -358.38182      389.5603       31.178473    
      5000   741.14254     -352.15878      421.95818      69.799405    
      5100   731.55867     -379.45646      416.50175      37.045289    
      5200   723.943       -372.81956      412.16589      39.346325    
      5300   782.83725     -364.59756      445.69643      81.098869    
      5400   879.8402      -416.52415      500.92357      84.399424    
      5500   826.7525      -360.97694      470.69891      109.72197    
      5600   771.2125      -353.15911      439.07805      85.918942    
      5700   711.48054     -347.14609      405.07057      57.924482    
      5800   751.85258     -361.17811      428.05578      66.877672    
      5900   789.89975     -387.46015      449.71735      62.257207    
      6000   718.60709     -367.74117      409.12797      41.386799    
      6100   746.03184     -407.38293      424.74183      17.358901    
      6200   788.02119     -393.71963      448.64782      54.928196    
      6300   744.48201     -371.51736      423.85946      52.342099    
      6400   648.75614     -339.54439      369.3594       29.815004    
      6500   732.67803     -383.23288      417.13904      33.906159    
      6600   777.10949     -376.34876      442.43541      66.086654    
      6700   741.3575      -354.31012      422.08056      67.770441    
      6800   752.84191     -347.96314      428.61904      80.655894    
      6900   779.89        -378.21085      444.01845      65.807602    
      7000   802.6131      -413.08176      456.9555       43.873742    
      7100   772.89349     -389.92737      440.0351       50.107728    
      7200   712.35595     -348.05933      405.56898      57.509649    
      7300   760.29791     -355.35404      432.864        77.509956    
      7400   720.55381     -354.49552      410.2363       55.74078     
      7500   726.91231     -384.92693      413.85641      28.929488    
      7600   786.1921      -410.04772      447.60646      37.558741    
      7700   733.13651     -392.08324      417.40007      25.316829    
      7800   764.53594     -389.60546      435.27685      45.671388    
      7900   723.96402     -386.81801      412.17785      25.359837    
      8000   735.07214     -392.19985      418.50209      26.302242    
      8100   750.33122     -418.4811       427.18962      8.7085193    
      8200   728.46386     -379.41091      414.73977      35.328856    
      8300   725.38113     -402.62887      412.98466      10.355785    
      8400   723.33784     -387.91394      411.82134      23.907401    
      8500   652.49493     -371.24089      371.48802      0.24712689   
      8600   787.75208     -428.83502      448.49461      19.659585    
      8700   717.31912     -378.85549      408.39468      29.539187    
      8800   753.42177     -379.85637      428.94917      49.092798    
      8900   688.262       -339.99439      391.85145      51.857062    
      9000   723.22849     -350.60665      411.75909      61.152446    
      9100   729.49656     -392.27102      415.32772      23.056696    
      9200   787.27427     -375.75955      448.22258      72.463023    
      9300   851.03135     -381.65835      484.52169      102.86334    
      9400   872.55161     -390.06235      496.77393      106.71157    
      9500   801.03676     -401.32916      456.05804      54.72888     
      9600   753.59434     -414.90961      429.04742      14.137812    
      9700   729.60608     -390.61996      415.39008      24.770111    
      9800   738.63375     -402.9574       420.52984      17.57244     
      9900   791.32519     -416.56351      450.5289       33.965392    
     10000   747.02146     -440.21192      425.30525     -14.906665    
Loop time of 9.18504 on 8 procs for 10000 steps with 192 atoms

Performance: 47.033 ns/day, 0.510 hours/ns, 1088.727 timesteps/s, 209.036 katom-step/s
92.5% CPU use with 8 MPI tasks x no OpenMP threads

MPI task timing breakdown:
Section |  min time  |  avg time  |  max time  |%varavg| %total
---------------------------------------------------------------
Pair    | 1.8375     | 2.4318     | 3.0795     |  27.6 | 26.48
Bond    | 0.017771   | 0.022576   | 0.027345   |   1.9 |  0.25
Kspace  | 2.9764     | 3.5424     | 4.0522     |  19.1 | 38.57
Neigh   | 0.036339   | 0.036711   | 0.037273   |   0.2 |  0.40
Comm    | 1.7659     | 1.8053     | 1.8589     |   2.6 | 19.65
Output  | 0.0041055  | 0.0055619  | 0.0079281  |   1.5 |  0.06
Modify  | 0.6857     | 0.88202    | 1.1164     |  17.2 |  9.60
Other   |            | 0.4587     |            |       |  4.99

Nlocal:             24 ave          25 max          22 min
Histogram: 2 0 0 1 0 0 0 0 0 5
Nghost:        2288.62 ave        2308 max        2265 min
Histogram: 2 0 1 0 0 1 1 0 0 3
Neighs:         5475.5 ave        6014 max        4765 min
Histogram: 1 0 1 1 0 1 1 0 2 1

Total # of neighbors = 43804
Ave neighs/atom = 228.14583
Ave special neighs/atom = 2
Neighbor list builds = 82
Dangerous builds = 0

Total wall time: 0:00:09
