LAMMPS (17 Feb 2022)
units		real
atom_style	full

pair_style	lj/cut/tip4p/long 1 2 1 1 0.14714951 8
bond_style	class2
angle_style	harmonic
kspace_style	pppm/tip4p 0.0001

read_data	data.h2o-smart
Reading data file ...
  orthogonal box = (-0.1607 0.08867 -0.104992) to (12.2637 12.51307 12.319408)
  2 by 2 by 2 MPI processor grid
  reading atoms ...
  192 atoms
  scanning bonds ...
  2 = max bonds/atom
  scanning angles ...
  1 = max angles/atom
  reading bonds ...
  128 bonds
  reading angles ...
  64 angles
Finding 1-2 1-3 1-4 neighbors ...
  special bond factors lj:    0        0        0       
  special bond factors coul:  0        0        0       
     2 = max # of 1-2 neighbors
     1 = max # of 1-3 neighbors
     1 = max # of 1-4 neighbors
     2 = max # of special neighbors
  special bonds CPU = 0.137 seconds
  read_data CPU = 0.577 seconds

pair_coeff  * 2  0.0     0.0
pair_coeff  1 1  0.1852  3.1589022

#q-tip4pf bond parameters
bond_coeff      1 0.9419 607.19354  -1388.6516 1852.577
angle_coeff     1 43.93  107.4

timestep	0.5

velocity	all create 300.0 1112 dist gaussian mom yes

thermo          100
thermo_style    custom step temp pe ke etotal

# smart sampling with GLE: best efficiency on slow diffusive modes,
# and as good as possible on higher-frequency modes
fix		1 all gle 6 300.0 300.0 31415 smart.A
fix_modify	1 energy no

#dump		1 all atom 100 h2o-smart.lammpstrj

#dump		2 all image 1000 h2o-smart.*.jpg element element #		zoom 1.4
#dump_modify	2 pad 5 element O H

#dump		3 all movie 100 movie.mp4 element element #		zoom 1.4
#dump_modify	3 pad 5 element O H

run		10000
PPPM initialization ...
  extracting TIP4P info from pair style
  using 12-bit tables for long-range coulomb (src/kspace.cpp:340)
  G vector (1/distance) = 0.35241702
  grid = 10 10 10
  stencil order = 5
  estimated absolute RMS force accuracy = 0.022972221
  estimated relative force accuracy = 6.918016e-05
  using double precision FFTW3
  3d grid and FFT values/proc = 1728 200
  generated 0 of 1 mixed pair_coeff terms from geometric mixing rule
Neighbor list info ...
  update every 1 steps, delay 10 steps, check yes
  max neighbors/atom: 2000, page size: 100000
  master list distance cutoff = 10.294299
  ghost atom cutoff = 10.294299
  binsize = 5.1471495, bins = 3 3 3
  1 neighbor lists, perpetual/occasional/extra = 1 0 0
  (1) pair lj/cut/tip4p/long, perpetual
      attributes: half, newton on
      pair build: half/bin/newton
      stencil: half/bin/3d
      bin: standard
Per MPI rank memory allocation (min/avg/max) = 14.76 | 14.77 | 14.77 Mbytes
Step Temp PotEng KinEng TotEng 
       0          300   -670.21264    170.80042   -499.41223 
     100    306.14212   -664.27053    174.29734   -489.97319 
     200    304.01844   -664.16923    173.08825   -491.08098 
     300    304.27393   -671.35535    173.23371   -498.12164 
     400    308.15784   -677.60578    175.44496   -502.16083 
     500    319.96332   -677.31539    182.16623   -495.14917 
     600    287.02269   -666.49903    163.41199   -503.08704 
     700    275.34759   -652.83654    156.76494    -496.0716 
     800    282.25663   -650.99706     160.6985   -490.29856 
     900    291.72954   -657.66443    166.09176   -491.57267 
    1000    293.89319   -672.61266     167.3236   -505.28906 
    1100    283.20782   -665.70835    161.24005   -504.46831 
    1200    281.84271   -659.26397    160.46284   -498.80113 
    1300    280.17635   -654.33743    159.51412   -494.82331 
    1400    284.75526   -655.44173    162.12106   -493.32067 
    1500    306.07801   -665.55249    174.26084   -491.29165 
    1600    286.28729   -641.14184    162.99329   -478.14855 
    1700     298.7244   -649.73519    170.07417   -479.66102 
    1800    280.78432   -645.55664    159.86026   -485.69638 
    1900    300.56828   -661.46467    171.12396   -490.34071 
    2000    260.16922   -645.28476    148.12337   -497.16139 
    2100    248.65893    -640.4264    141.57016   -498.85623 
    2200    270.53529   -650.91398    154.02513   -496.88884 
    2300    289.73186   -652.53813    164.95441   -487.58372 
    2400    286.70866   -662.60226    163.23319   -499.36907 
    2500    275.09904   -663.23612    156.62343   -506.61269 
    2600    301.13407   -665.33316    171.44608   -493.88708 
    2700    283.73528   -651.04109    161.54034   -489.50074 
    2800    276.72236    -658.5508    157.54765   -501.00315 
    2900    291.02925   -667.67231    165.69306   -501.97926 
    3000    290.83688   -660.81137    165.58353   -495.22783 
    3100    289.66522   -664.52901    164.91647   -499.61255 
    3200    271.75033   -662.89908     154.7169   -508.18218 
    3300    277.31755   -665.25899    157.88651   -507.37248 
    3400    268.63263    -652.9639    152.94188   -500.02202 
    3500    299.33818   -667.73255    170.42362   -497.30893 
    3600    282.85941   -659.87397    161.04168   -498.83229 
    3700    298.87436   -665.27297    170.15955   -495.11342 
    3800    266.12937   -646.10056    151.51669   -494.58387 
    3900    311.50321   -666.69854    177.34959   -489.34894 
    4000    288.90098   -654.84024    164.48136   -490.35888 
    4100    287.45868   -661.08318     163.6602   -497.42297 
    4200    284.71889   -659.01594    162.10035    -496.9156 
    4300    293.55313   -657.62469    167.12999   -490.49471 
    4400    295.75833   -662.98057    168.38548   -494.59508 
    4500    271.46594   -659.52606    154.55499   -504.97107 
    4600    292.62179   -667.22731    166.59974   -500.62756 
    4700      271.071   -661.90957    154.33013   -507.57943 
    4800    262.95089   -656.75941    149.70707   -507.05234 
    4900    261.56374   -653.87152    148.91732    -504.9542 
    5000    263.75235   -654.57149    150.16337   -504.40812 
    5100    265.05331   -664.89994    150.90405   -513.99589 
    5200    288.11667   -672.58609    164.03483   -508.55126 
    5300    303.53792   -672.36076    172.81468   -499.54608 
    5400    301.69805   -676.55243    171.76718   -504.78525 
    5500     285.4588   -669.28344    162.52161   -506.76183 
    5600    305.39413   -684.22424    173.87148   -510.35276 
    5700    268.30667   -663.54561     152.7563   -510.78931 
    5800    288.15277   -667.74721    164.05538   -503.69183 
    5900    306.95074   -671.38048    174.75771   -496.62276 
    6000    306.84539     -661.375    174.69773   -486.67726 
    6100    291.36454   -659.90099    165.88395   -494.01704 
    6200    297.59313   -657.75455     169.4301   -488.32445 
    6300    290.20496   -654.78722    165.22376   -489.56346 
    6400    313.24675   -664.13505    178.34225    -485.7928 
    6500    283.96032   -669.04248    161.66847   -507.37401 
    6600    283.65423   -664.96401     161.4942   -503.46981 
    6700     289.2415   -670.59009    164.67523   -505.91486 
    6800    282.67741   -660.60476    160.93807   -499.66669 
    6900    308.94715   -659.59176    175.89434   -483.69742 
    7000    295.37896   -649.18566     168.1695   -481.01616 
    7100    286.55559    -638.5956    163.14605   -475.44955 
    7200    287.66243   -637.16799    163.77621   -473.39178 
    7300    300.82639   -642.87219    171.27091   -471.60128 
    7400    308.42171   -649.76514    175.59519   -474.16995 
    7500    307.96805   -660.26202     175.3369   -484.92511 
    7600    334.64604   -662.19579    190.52561   -471.67018 
    7700    283.35737   -636.27638    161.32519   -474.95119 
    7800    294.73035   -654.25685    167.80022   -486.45663 
    7900    288.10567   -658.92445    164.02856   -494.89589 
    8000    299.28296   -648.44583    170.39218   -478.05365 
    8100    319.73905   -658.71381    182.03854   -476.67527 
    8200    276.12865   -640.71794    157.20963   -483.50832 
    8300     297.3927   -647.98844    169.31599   -478.67245 
    8400    311.40089   -651.10103    177.29134   -473.80969 
    8500    317.71742   -649.26332    180.88756   -468.37576 
    8600    305.51736   -639.52236    173.94164   -465.58072 
    8700    319.20983   -647.31911    181.73724   -465.58187 
    8800    320.83445   -653.94463    182.66219   -471.28244 
    8900    309.29279   -641.30501    176.09112   -465.21388 
    9000    308.63987   -639.52062    175.71939   -463.80122 
    9100    308.33815   -651.77831    175.54761    -476.2307 
    9200     289.5264   -656.63126    164.83743   -491.79383 
    9300     295.8142   -654.34709    168.41729   -485.92979 
    9400     303.3585   -657.46496    172.71253   -484.75244 
    9500    303.28701   -655.28264    172.67183   -482.61081 
    9600    303.79319   -657.68562    172.96001   -484.72562 
    9700    304.34222      -659.78    173.27259   -486.50741 
    9800    307.36684   -660.99082    174.99461   -485.99621 
    9900    315.30402   -662.49807    179.51353   -482.98454 
   10000    315.08174   -650.08995    179.38697   -470.70298 
Loop time of 12.5275 on 8 procs for 10000 steps with 192 atoms

Performance: 34.484 ns/day, 0.696 hours/ns, 798.246 timesteps/s
91.1% CPU use with 8 MPI tasks x no OpenMP threads

MPI task timing breakdown:
Section |  min time  |  avg time  |  max time  |%varavg| %total
---------------------------------------------------------------
Pair    | 2.2604     | 2.737      | 3.5448     |  25.2 | 21.85
Bond    | 0.02308    | 0.03125    | 0.051922   |   4.8 |  0.25
Kspace  | 4.6434     | 5.4574     | 5.884      |  17.1 | 43.56
Neigh   | 0.090396   | 0.092655   | 0.094904   |   0.7 |  0.74
Comm    | 2.123      | 2.2233     | 2.326      |   3.6 | 17.75
Output  | 0.0047932  | 0.0067936  | 0.014144   |   3.4 |  0.05
Modify  | 0.99404    | 1.1966     | 1.4321     |  13.4 |  9.55
Other   |            | 0.7825     |            |       |  6.25

Nlocal:             24 ave          29 max          16 min
Histogram: 1 0 0 1 1 1 0 1 1 2
Nghost:        1896.25 ave        1955 max        1841 min
Histogram: 1 1 1 1 0 2 0 0 0 2
Neighs:        5471.25 ave        6800 max        3461 min
Histogram: 1 0 0 1 0 2 0 2 1 1

Total # of neighbors = 43770
Ave neighs/atom = 227.96875
Ave special neighs/atom = 2
Neighbor list builds = 129
Dangerous builds = 0

Total wall time: 0:00:13
