LAMMPS (2 Aug 2023 - Development - bc02a7cc6)
units		real
atom_style	full

pair_style	lj/cut/tip4p/long 1 2 1 1 0.14714951 8
bond_style	class2
angle_style	harmonic
kspace_style	pppm/tip4p 0.0001

read_data	data.h2o-smart
Reading data file ...
  orthogonal box = (-0.1607 0.08867 -0.104992) to (12.2637 12.51307 12.319408)
  2 by 2 by 2 MPI processor grid
  reading atoms ...
  192 atoms
  scanning bonds ...
  2 = max bonds/atom
  scanning angles ...
  1 = max angles/atom
  reading bonds ...
  128 bonds
  reading angles ...
  64 angles
Finding 1-2 1-3 1-4 neighbors ...
  special bond factors lj:    0        0        0       
  special bond factors coul:  0        0        0       
     2 = max # of 1-2 neighbors
     1 = max # of 1-3 neighbors
     1 = max # of 1-4 neighbors
     2 = max # of special neighbors
  special bonds CPU = 0.001 seconds
  read_data CPU = 0.013 seconds

pair_coeff  * 2  0.0     0.0
pair_coeff  1 1  0.1852  3.1589022

#q-tip4pf bond parameters
bond_coeff      1 0.9419 607.19354  -1388.6516 1852.577
angle_coeff     1 43.93  107.4

timestep	0.5

velocity	all create 300.0 1112 dist gaussian mom yes

thermo          100
thermo_style    custom step temp pe ke etotal

# smart sampling with GLE: best efficiency on slow diffusive modes,
# and as good as possible on higher-frequency modes
fix		1 all gle 6 300.0 300.0 31415 smart.A
fix_modify	1 energy no

#dump		1 all atom 100 h2o-smart.lammpstrj

#dump		2 all image 1000 h2o-smart.*.jpg element element #		zoom 1.4
#dump_modify	2 pad 5 element O H

#dump		3 all movie 100 movie.mp4 element element #		zoom 1.4
#dump_modify	3 pad 5 element O H

run		10000
PPPM initialization ...
  extracting TIP4P info from pair style
  using 12-bit tables for long-range coulomb (src/kspace.cpp:342)
  G vector (1/distance) = 0.35241702
  grid = 10 10 10
  stencil order = 5
  estimated absolute RMS force accuracy = 0.022972221
  estimated relative force accuracy = 6.918016e-05
  using double precision FFTW3
  3d grid and FFT values/proc = 1728 200
WARNING: Communication cutoff 0 is shorter than a bond length based estimate of 3.4128499999999997. This may lead to errors. (src/comm.cpp:723)
WARNING: Increasing communication cutoff to 11.08905 for TIP4P pair style (src/KSPACE/pair_lj_cut_tip4p_long.cpp:484)
Generated 0 of 1 mixed pair_coeff terms from geometric mixing rule
Neighbor list info ...
  update: every = 1 steps, delay = 0 steps, check = yes
  max neighbors/atom: 2000, page size: 100000
  master list distance cutoff = 10.294299
  ghost atom cutoff = 11.08905
  binsize = 5.1471495, bins = 3 3 3
  1 neighbor lists, perpetual/occasional/extra = 1 0 0
  (1) pair lj/cut/tip4p/long, perpetual
      attributes: half, newton on
      pair build: half/bin/newton
      stencil: half/bin/3d
      bin: standard
Per MPI rank memory allocation (min/avg/max) = 14.78 | 14.78 | 14.79 Mbytes
   Step          Temp          PotEng         KinEng         TotEng    
         0   300           -670.21264      170.80042     -499.41223    
       100   306.14212     -664.27053      174.29734     -489.97319    
       200   304.01844     -664.16923      173.08825     -491.08098    
       300   304.27393     -671.35535      173.23371     -498.12164    
       400   308.15784     -677.60578      175.44496     -502.16083    
       500   319.96332     -677.31539      182.16623     -495.14917    
       600   287.02269     -666.49903      163.41199     -503.08704    
       700   275.34759     -652.83654      156.76494     -496.0716     
       800   282.25663     -650.99706      160.6985      -490.29856    
       900   291.72954     -657.66443      166.09176     -491.57267    
      1000   293.89319     -672.61266      167.3236      -505.28906    
      1100   283.20782     -665.70835      161.24005     -504.46831    
      1200   281.84271     -659.26397      160.46284     -498.80113    
      1300   280.17635     -654.33742      159.51412     -494.8233     
      1400   284.75526     -655.44174      162.12106     -493.32069    
      1500   306.07801     -665.55248      174.26084     -491.29164    
      1600   286.28729     -641.14184      162.99329     -478.14854    
      1700   298.72439     -649.7352       170.07417     -479.66103    
      1800   280.78432     -645.55661      159.86026     -485.69635    
      1900   300.5683      -661.46469      171.12397     -490.34072    
      2000   260.16917     -645.28468      148.12334     -497.16135    
      2100   248.65899     -640.42636      141.5702      -498.85616    
      2200   270.53545     -650.91407      154.02522     -496.88885    
      2300   289.7316      -652.53806      164.95426     -487.58381    
      2400   286.70914     -662.60268      163.23347     -499.36921    
      2500   275.09933     -663.23631      156.6236      -506.61271    
      2600   301.13338     -665.33455      171.44569     -493.88886    
      2700   283.73497     -651.04103      161.54017     -489.50086    
      2800   276.72731     -658.55264      157.55047     -501.00217    
      2900   291.03134     -667.67137      165.69425     -501.97712    
      3000   290.83862     -660.81085      165.58452     -495.22632    
      3100   289.65896     -664.52393      164.9129      -499.61103    
      3200   271.75522     -662.89755      154.71968     -508.17787    
      3300   277.32219     -665.25058      157.88915     -507.36143    
      3400   268.65007     -652.95969      152.95181     -500.00788    
      3500   299.33576     -667.71746      170.42224     -497.29521    
      3600   282.88808     -659.88334      161.05801     -498.82533    
      3700   298.83363     -665.23564      170.13636     -495.09928    
      3800   266.22751     -646.16107      151.57257     -494.5885     
      3900   310.73361     -663.99767      176.91143     -487.08624    
      4000   278.95714     -655.65483      158.81998     -496.83484    
      4100   285.29114     -655.76391      162.42615     -493.33776    
      4200   291.41463     -648.74953      165.91247     -482.83707    
      4300   275.7542      -633.34888      156.99644     -476.35243    
      4400   314.80961     -647.98256      179.23204     -468.75052    
      4500   325.90964     -648.90347      185.55167     -463.35179    
      4600   306.62377     -639.73942      174.57156     -465.16787    
      4700   325.05482     -653.61119      185.065       -468.5462     
      4800   299.48805     -642.8194       170.50894     -472.31045    
      4900   316.64661     -656.89933      180.27791     -476.62142    
      5000   290.35149     -648.8062       165.30718     -483.49901    
      5100   300.91129     -660.30161      171.31924     -488.98237    
      5200   285.58582     -649.90883      162.59392     -487.31491    
      5300   303.95753     -656.12642      173.05358     -483.07285    
      5400   324.61659     -670.4354       184.81549     -485.61991    
      5500   292.28182     -645.88743      166.40619     -479.48125    
      5600   314.86184     -661.01674      179.26178     -481.75496    
      5700   315.1735      -654.73309      179.43922     -475.29387    
      5800   311.75721     -658.70804      177.49421     -481.21383    
      5900   304.25724     -656.23787      173.22421     -483.01366    
      6000   287.39479     -649.40098      163.62383     -485.77715    
      6100   291.2342      -650.07683      165.80974     -484.26709    
      6200   275.01865     -643.78556      156.57767     -487.20789    
      6300   291.75225     -653.43272      166.10469     -487.32803    
      6400   308.33323     -665.22237      175.54481     -489.67756    
      6500   304.71888     -652.28664      173.48704     -478.7996     
      6600   302.65317     -651.55379      172.31096     -479.24284    
      6700   314.21174     -652.52625      178.89165     -473.6346     
      6800   293.02474     -643.74549      166.82916     -476.91633    
      6900   302.72651     -643.91438      172.35271     -471.56166    
      7000   312.88659     -650.09832      178.1372      -471.96112    
      7100   302.31404     -647.00155      172.11788     -474.88367    
      7200   313.64028     -652.48224      178.5663      -473.91594    
      7300   302.13545     -649.58885      172.0162      -477.57265    
      7400   271.91054     -632.07992      154.80811     -477.27181    
      7500   304.79805     -659.85575      173.53211     -486.32364    
      7600   305.84235     -663.35686      174.12667     -489.2302     
      7700   307.15354     -654.13296      174.87318     -479.25979    
      7800   300.81112     -650.27087      171.26222     -479.00865    
      7900   289.5464      -650.51156      164.84882     -485.66274    
      8000   303.96708     -650.95748      173.05901     -477.89847    
      8100   285.24421     -654.18726      162.39943     -491.78783    
      8200   306.09103     -664.16694      174.26825     -489.89869    
      8300   295.53294     -666.31822      168.25716     -498.06106    
      8400   310.62487     -673.29256      176.84952     -496.44304    
      8500   277.92153     -645.54909      158.23038     -487.31871    
      8600   309.67951     -653.89532      176.3113      -477.58402    
      8700   322.5258      -658.47912      183.62513     -474.85399    
      8800   330.36801     -654.85208      188.08998     -466.7621     
      8900   309.97825     -649.4682       176.48138     -472.98682    
      9000   298.83297     -647.28302      170.13599     -477.14704    
      9100   302.4605      -644.23281      172.20127     -472.03155    
      9200   307.01278     -651.71953      174.79303     -476.9265     
      9300   302.83        -646.95562      172.41163     -474.54399    
      9400   290.39638     -629.38119      165.33274     -464.04845    
      9500   310.24743     -638.53564      176.63463     -461.90101    
      9600   319.93329     -637.78251      182.14913     -455.63339    
      9700   335.75246     -648.15691      191.15553     -457.00137    
      9800   322.75482     -641.79486      183.75552     -458.03933    
      9900   300.5531      -622.93996      171.11532     -451.82464    
     10000   330.88035     -635.04765      188.38167     -446.66597    
Loop time of 9.80227 on 8 procs for 10000 steps with 192 atoms

Performance: 44.071 ns/day, 0.545 hours/ns, 1020.172 timesteps/s, 195.873 katom-step/s
92.0% CPU use with 8 MPI tasks x no OpenMP threads

MPI task timing breakdown:
Section |  min time  |  avg time  |  max time  |%varavg| %total
---------------------------------------------------------------
Pair    | 2.1235     | 2.5782     | 2.9437     |  17.8 | 26.30
Bond    | 0.02177    | 0.024022   | 0.027106   |   1.2 |  0.25
Kspace  | 3.455      | 3.8358     | 4.2134     |  13.2 | 39.13
Neigh   | 0.063481   | 0.063881   | 0.064245   |   0.1 |  0.65
Comm    | 1.8276     | 1.8572     | 1.8937     |   1.7 | 18.95
Output  | 0.0050761  | 0.006334   | 0.010367   |   2.1 |  0.06
Modify  | 0.75344    | 0.95166    | 1.0962     |  11.5 |  9.71
Other   |            | 0.4852     |            |       |  4.95

Nlocal:             24 ave          29 max          18 min
Histogram: 1 0 1 1 0 1 1 1 1 1
Nghost:        2257.88 ave        2287 max        2233 min
Histogram: 2 2 0 0 0 0 0 2 1 1
Neighs:           5480 ave        6684 max        4195 min
Histogram: 1 0 1 0 1 1 3 0 0 1

Total # of neighbors = 43840
Ave neighs/atom = 228.33333
Ave special neighs/atom = 2
Neighbor list builds = 135
Dangerous builds = 0

Total wall time: 0:00:09
