LAMMPS (17 Feb 2022)
units		real
atom_style	full

pair_style	lj/cut/tip4p/long 1 2 1 1 0.14714951 8
bond_style	class2
angle_style	harmonic
kspace_style	pppm/tip4p 0.0001

read_data	data.h2o-quantum
Reading data file ...
  orthogonal box = (-0.025952 -0.072222 0.103767) to (12.398448 12.352178 12.528167)
  2 by 2 by 2 MPI processor grid
  reading atoms ...
  192 atoms
  scanning bonds ...
  2 = max bonds/atom
  scanning angles ...
  1 = max angles/atom
  reading bonds ...
  128 bonds
  reading angles ...
  64 angles
Finding 1-2 1-3 1-4 neighbors ...
  special bond factors lj:    0        0        0       
  special bond factors coul:  0        0        0       
     2 = max # of 1-2 neighbors
     1 = max # of 1-3 neighbors
     1 = max # of 1-4 neighbors
     2 = max # of special neighbors
  special bonds CPU = 0.001 seconds
  read_data CPU = 0.039 seconds

pair_coeff  * 2  0.0     0.0
pair_coeff  1 1  0.1852  3.1589022

#q-tip4pf bond parameters
bond_coeff      1 0.9419 607.19354  -1388.6516 1852.577
angle_coeff     1 43.93  107.4

timestep	0.5

# mean velocity is higher than target T because of zero point energy
velocity        all create 800.0 1112 dist gaussian mom yes

thermo          100
thermo_style    custom step temp pe ke etotal

# some problem
fix	 1 all gle 6 300.0 300.0 31415 qt-300k.A noneq qt-300k.C
fix_modify 1 energy no

#dump		1 all atom 100 h2o-smart.lammpstrj

#dump		2 all image 1000 h2o-smart.*.jpg element element #		zoom 1.4
#dump_modify	2 pad 5 element O H

#dump		3 all movie 100 movie.mp4 element element #		zoom 1.4
#dump_modify	3 pad 5 element O H

run		10000
PPPM initialization ...
  extracting TIP4P info from pair style
  using 12-bit tables for long-range coulomb (src/kspace.cpp:340)
  G vector (1/distance) = 0.35241702
  grid = 10 10 10
  stencil order = 5
  estimated absolute RMS force accuracy = 0.022972221
  estimated relative force accuracy = 6.918016e-05
  using double precision FFTW3
  3d grid and FFT values/proc = 1728 200
  generated 0 of 1 mixed pair_coeff terms from geometric mixing rule
Neighbor list info ...
  update every 1 steps, delay 10 steps, check yes
  max neighbors/atom: 2000, page size: 100000
  master list distance cutoff = 10.294299
  ghost atom cutoff = 10.294299
  binsize = 5.1471495, bins = 3 3 3
  1 neighbor lists, perpetual/occasional/extra = 1 0 0
  (1) pair lj/cut/tip4p/long, perpetual
      attributes: half, newton on
      pair build: half/bin/newton
      stencil: half/bin/3d
      bin: standard
Per MPI rank memory allocation (min/avg/max) = 14.76 | 14.77 | 14.77 Mbytes
Step Temp PotEng KinEng TotEng 
       0          800   -397.88979    455.46778    57.577983 
     100    674.48863   -412.18523    384.00979   -28.175439 
     200    735.74662   -428.27807     418.8861   -9.3919748 
     300    696.97245   -401.13917    396.81062   -4.3285528 
     400    695.11378   -390.89144    395.75241    4.8609694 
     500    791.66029   -433.85958    450.71969    16.860108 
     600    713.64249   -407.92895    406.30145   -1.6274998 
     700    748.95738   -392.17677    426.40744    34.230673 
     800    750.55632   -444.90491    427.31777   -17.587134 
     900    665.43002   -418.87874    378.85242   -40.026327 
    1000    714.06283   -414.55878    406.54076   -8.0180179 
    1100    721.55306   -432.14143    410.80521   -21.336221 
    1200    708.78546   -412.98609    403.53617    -9.449916 
    1300     705.2092   -424.01779    401.50008   -22.517714 
    1400    708.89274   -426.26147    403.59725   -22.664227 
    1500    677.53027   -375.96192    385.74151    9.7795824 
    1600    691.48534    -377.1828    393.68661    16.503818 
    1700    743.28839   -412.00201    423.17989    11.177878 
    1800    616.05339   -361.41657    350.74059   -10.675986 
    1900    696.54682   -407.64796    396.56829   -11.079673 
    2000    676.91448   -345.67328    385.39091    39.717637 
    2100    768.34468   -386.52612     437.4453    50.919182 
    2200    774.50168   -383.93581     440.9507    57.014882 
    2300    748.18177   -355.91567    425.96586    70.050185 
    2400    793.39174   -360.47922    451.70546    91.226244 
    2500    803.70618   -368.70856    457.57783    88.869276 
    2600    832.49848   -396.83442    473.97029    77.135865 
    2700    707.68437   -330.94902    402.90928    71.960257 
    2800     781.0939   -386.90353    444.70388    57.800351 
    2900    734.54943   -405.97421    418.20449    12.230283 
    3000    851.18563   -418.65928    484.60953    65.950246 
    3100    732.64931   -356.00457    417.12269    61.118115 
    3200    814.67053    -394.8339    463.82022    68.986316 
    3300    741.39033   -388.42593    422.09925    33.673322 
    3400    748.41191   -373.04674    426.09688    53.050144 
    3500    807.63361   -375.65329    459.81385    84.160563 
    3600    817.16987   -358.75781    465.24318    106.48537 
    3700    782.68745   -395.80943    445.61114    49.801711 
    3800    759.62672   -352.48877    432.48187    79.993101 
    3900    828.05623   -385.06758    471.44116    86.373576 
    4000    761.16549   -398.97356    433.35794    34.384385 
    4100    735.62018   -389.81271    418.81411    29.001393 
    4200    776.60658   -380.78141    442.14909    61.367675 
    4300    797.11524   -403.37628    453.82538    50.449095 
    4400    698.32297   -353.14271    397.57951    44.436801 
    4500    746.02612   -398.85276    424.73857    25.885815 
    4600    738.77274   -426.62524    420.60897   -6.0162701 
    4700    721.06481   -383.96619    410.52723    26.561044 
    4800    746.93619   -390.12313    425.25671    35.133574 
    4900    684.22623   -358.38273    389.55375    31.171018 
    5000    741.14422   -352.16306    421.95914    69.796079 
    5100    731.55181   -379.45319    416.49784     37.04465 
    5200    723.95601   -372.83768    412.17329    39.335612 
    5300    782.84324    -364.6207    445.69984     81.07914 
    5400    879.82217   -416.54163    500.91331    84.371677 
    5500    826.73132    -361.0064    470.68684    109.68045 
    5600    771.26234   -353.21381    439.10643    85.892616 
    5700    711.44605   -347.14505    405.05094    57.905885 
    5800    751.90092   -361.24329     428.0833    66.840003 
    5900    789.90106   -387.49313     449.7181    62.224963 
    6000    718.87662   -367.88643    409.28142    41.394993 
    6100    746.30065   -407.56656    424.89487    17.328308 
    6200    787.79521   -393.66727    448.51916    54.851892 
    6300    744.22692   -371.49722    423.71423    52.217001 
    6400    648.87025   -339.69814    369.42436    29.726227 
    6500    732.16412   -383.06415    416.84645      33.7823 
    6600    776.99992   -376.37548    442.37303    65.997556 
    6700    740.19043   -354.09635    421.41611     67.31976 
    6800    752.30453   -347.77867    428.31309    80.534415 
    6900    778.99829   -377.77151    443.51077    65.739265 
    7000    801.79934   -412.58155     456.4922    43.910654 
    7100    772.01899   -389.07128    439.53721    50.465932 
    7200    712.72828   -347.99507    405.78095     57.78588 
    7300    764.91742   -356.22125    435.49404    79.272794 
    7400     725.9833   -356.16116     413.3275    57.166335 
    7500    722.86021   -382.76593    411.54942    28.783483 
    7600    765.74811   -399.19244    435.96698    36.774549 
    7700    815.63304   -410.57684    464.36821    53.791364 
    7800    840.99206    -389.2507    478.80598    89.555279 
    7900    749.77512   -387.17031    426.87301    39.702701 
    8000    702.50615   -351.03202    399.96114    48.929117 
    8100    725.93642   -397.64564    413.30081    15.655167 
    8200     773.2099   -379.67438    440.21524    60.540867 
    8300    749.85977   -402.00169     426.9212    24.919508 
    8400    706.24801   -395.82005    402.09151    6.2714668 
    8500    699.59591   -408.14156    398.30424   -9.8373227 
    8600    713.24017   -408.88525    406.07239   -2.8128573 
    8700    763.09218   -433.78052    434.45487   0.67435499 
    8800    803.26292   -434.55642    457.32547    22.769053 
    8900    795.52589   -401.96474    452.92051    50.955768 
    9000    749.99274   -375.83208    426.99691    51.164824 
    9100    773.48872   -387.60579    440.37398    52.768192 
    9200    749.07278   -354.54324    426.47314    71.929905 
    9300    777.55175   -371.45829     442.6872    71.228916 
    9400    840.69249   -429.95141    478.63542     48.68401 
    9500    730.21016   -339.45342    415.73399     76.28057 
    9600    777.06654    -402.4559    442.41096    39.955054 
    9700    756.59708   -381.99617    430.75699    48.760818 
    9800    783.59883   -413.22712    446.13002    32.902901 
    9900    829.57166   -418.91243    472.30395    53.391517 
   10000    784.74437   -414.83604    446.78222    31.946177 
Loop time of 22.3678 on 8 procs for 10000 steps with 192 atoms

Performance: 19.314 ns/day, 1.243 hours/ns, 447.072 timesteps/s
86.0% CPU use with 8 MPI tasks x no OpenMP threads

MPI task timing breakdown:
Section |  min time  |  avg time  |  max time  |%varavg| %total
---------------------------------------------------------------
Pair    | 2.523      | 3.0997     | 3.4982     |  15.3 | 13.86
Bond    | 0.030058   | 0.03899    | 0.073161   |   6.9 |  0.17
Kspace  | 11.574     | 11.994     | 12.61      |   8.5 | 53.62
Neigh   | 0.08389    | 0.095515   | 0.10661    |   3.3 |  0.43
Comm    | 3.5186     | 3.7714     | 3.9255     |   6.9 | 16.86
Output  | 0.0055814  | 0.0083134  | 0.023283   |   6.2 |  0.04
Modify  | 1.2523     | 1.3874     | 1.6284     |  11.3 |  6.20
Other   |            | 1.973      |            |       |  8.82

Nlocal:             24 ave          28 max          19 min
Histogram: 1 0 0 1 2 0 1 2 0 1
Nghost:         1908.5 ave        1943 max        1877 min
Histogram: 2 1 1 0 0 0 0 2 0 2
Neighs:        5480.38 ave        6198 max        4203 min
Histogram: 1 0 0 1 0 0 2 1 1 2

Total # of neighbors = 43843
Ave neighs/atom = 228.34896
Ave special neighs/atom = 2
Neighbor list builds = 82
Dangerous builds = 0

Total wall time: 0:00:22
