LAMMPS (28 Mar 2023 - Update 1)
# sample surface deposition script for molecules

units		lj
atom_style      bond
boundary        p p f

lattice		fcc 1.0
Lattice spacing in x,y,z = 1.5874011 1.5874011 1.5874011
region          box block 0 5 0 5 0 10
create_box      3 box bond/types 1 extra/bond/per/atom 1
Created orthogonal box = (0 0 0) to (7.9370053 7.9370053 15.874011)
  1 by 2 by 4 MPI processor grid

region		substrate block INF INF INF INF INF 3
create_atoms	1 region substrate
Created 350 atoms
  using lattice units in orthogonal box = (0 0 0) to (7.9370053 7.9370053 15.874011)
  create_atoms CPU = 0.160 seconds

pair_style	lj/cut 2.5
pair_coeff	* * 1.0 1.0
pair_coeff	1 2 1.0 1.0 5.0
mass		* 1.0

bond_style	harmonic
bond_coeff      1 5.0 1.0

neigh_modify	delay 0

group		addatoms type 2
0 atoms in group addatoms
region          mobile block 0 5 0 5 2 INF
group		mobile region mobile
150 atoms in group mobile

compute		add addatoms temp
compute_modify	add dynamic/dof yes extra/dof 0

fix		1 addatoms nve
fix		2 mobile langevin 0.1 0.1 0.1 587283
fix		3 mobile nve

molecule        dimer molecule.dimer.shake
Read molecule template dimer:
  1 molecules
  0 fragments
  2 atoms with max type 3
  1 bonds with max type 1
  0 angles with max type 0
  0 dihedrals with max type 0
  0 impropers with max type 0
region          slab block 0 5 0 5 8 9
fix		4 addatoms deposit 100 0 100 12345 region slab near 1.0                 mol dimer vz -1.0 -1.0 shake 6
fix		5 addatoms wall/reflect zhi EDGE
fix             6 all shake 0.0001 20 1000 b 1 mol dimer
Finding SHAKE clusters ...
       0 = # of size 2 clusters
       0 = # of size 3 clusters
       0 = # of size 4 clusters
       0 = # of frozen angles
  find clusters CPU = 0.128 seconds

thermo_style	custom step atoms temp epair etotal press
thermo          100
thermo_modify	temp add lost/bond ignore lost warn
WARNING: Temperature for thermo pressure is not for group all (src/thermo.cpp:521)

#dump		1 all atom 50 dump.deposit.atom

#dump		2 all image 50 image.*.jpg type type #		axes yes 0.8 0.02 view 80 -30
#dump_modify	2 pad 5

#dump		3 all movie 50 tmp.mpg type type #		axes yes 0.8 0.02 view 80 -30
#dump_modify	3 pad 5

run             10000
Generated 0 of 3 mixed pair_coeff terms from geometric mixing rule
Neighbor list info ...
  update: every = 1 steps, delay = 0 steps, check = yes
  max neighbors/atom: 2000, page size: 100000
  master list distance cutoff = 5.3
  ghost atom cutoff = 5.3
  binsize = 2.65, bins = 3 3 6
  1 neighbor lists, perpetual/occasional/extra = 1 0 0
  (1) pair lj/cut, perpetual
      attributes: half, newton on
      pair build: half/bin/newton
      stencil: half/bin/3d
      bin: standard
SHAKE stats (type/ave/delta/count) on step 0
Per MPI rank memory allocation (min/avg/max) = 4.825 | 4.959 | 5.075 Mbytes
   Step        Atoms         Temp          E_pair         TotEng         Press     
         0         350   0             -6.9215833     -6.9215833     -1.0052629    
       100         352   1.0079368     -6.8852191     -6.8780604     -0.72575301   
       200         354   1.0081552     -6.8545127     -6.8402732     -0.68713203   
       300         356   1.0085803     -6.8244691     -6.803221      -0.65389639   
       400         358   1.0099188     -6.7823126     -6.7541026     -0.68628643   
       500         360   1.0140221     -6.7506621     -6.715453      -0.71750459   
       600         362   1.0261418     -6.7064462     -6.6639265     -0.67831981   
       700         364   1.0683135     -6.6749955     -6.6236342     -0.67423603   
       800         366   1.0959778     -6.641634      -6.5817445     -0.66410097   
       900         368   1.1262085     -6.6106217     -6.5417638     -0.64913411   
SHAKE stats (type/ave/delta/count) on step 1000
Bond:   1   1         2.22045e-15       10
      1000         370   1.2436487     -6.5814109     -6.4973806     -0.69068445   
      1100         372   0.92307586    -6.5800162     -6.5117781     -0.64585329   
      1200         374   0.90550736    -6.5699018     -6.4972676     -0.66926013   
      1300         376   0.94883309    -6.5675495     -6.485536      -0.64058902   
      1400         378   0.90949447    -6.576921      -6.4927085     -0.67669237   
      1500         380   0.77775433    -6.5694001     -6.492648      -0.60751469   
      1600         382   0.82956399    -6.5708375     -6.4839722     -0.62207982   
      1700         384   0.68233583    -6.5688156     -6.4932966     -0.64979518   
      1800         386   0.63197742    -6.5657642     -6.4920881     -0.66374389   
      1900         388   0.8458029     -6.5704267     -6.4668813     -0.68083108   
SHAKE stats (type/ave/delta/count) on step 2000
Bond:   1   1         1.66533e-15       20
      2000         390   0.75734227    -6.5725884     -6.4754933     -0.68208674   
      2100         392   0.58637307    -6.5613379     -6.4828058     -0.65602656   
      2200         394   0.66930831    -6.5696117     -6.4761804     -0.66824775   
      2300         396   0.68018648    -6.5604556     -6.4616911     -0.67005983   
      2400         398   0.7565486     -6.5685412     -6.4544887     -0.69422167   
      2500         400   0.65738657    -6.5901256     -6.487409      -0.71685672   
      2600         402   0.60444531    -6.5933517     -6.495618      -0.68839771   
      2700         404   0.51233324    -6.592101      -6.5065008     -0.70022914   
      2800         406   0.48895409    -6.5905528     -6.5062504     -0.68920893   
      2900         408   0.46279767    -6.5992355     -6.5169981     -0.66235563   
SHAKE stats (type/ave/delta/count) on step 3000
Bond:   1   1         2.10942e-15       30
      3000         410   0.43796036    -6.5909919     -6.5108772     -0.63023804   
      3100         412   0.46363556    -6.5980994     -6.5108864     -0.71980891   
      3200         414   0.47973251    -6.5996146     -6.5069127     -0.72137978   
      3300         416   0.43432684    -6.5842232     -6.4980887     -0.70973394   
      3400         418   0.53026802    -6.6034591     -6.4956295     -0.70803658   
      3500         420   0.46852359    -6.6064669     -6.5088578     -0.64574352   
      3600         422   0.43176985    -6.614019      -6.5219354     -0.67867679   
      3700         424   0.44587814    -6.620868      -6.5235951     -0.79919774   
      3800         426   0.41258441    -6.6097047     -6.5176964     -0.75859328   
      3900         428   0.34545148    -6.6052651     -6.52657       -0.76695568   
SHAKE stats (type/ave/delta/count) on step 4000
Bond:   1   1         2.10942e-15       40
      4000         430   0.46525721    -6.6163434     -6.5081441     -0.73292439   
      4100         432   0.48703467    -6.640156      -6.524598      -0.76779393   
      4200         434   0.43451197    -6.6361469     -6.531023      -0.74203962   
      4300         436   0.45457707    -6.65124       -6.5391596     -0.74077156   
      4400         438   0.43879855    -6.6581799     -6.5479793     -0.76869685   
      4500         440   0.44360403    -6.6594427     -6.5460212     -0.71857925   
      4600         442   0.43707554    -6.6607848     -6.5470661     -0.69093306   
      4700         444   0.39804929    -6.6581333     -6.5527936     -0.75908598   
      4800         446   0.35290508    -6.6633031     -6.5683511     -0.75098365   
      4900         448   0.43096269    -6.6743159     -6.5564745     -0.74558411   
SHAKE stats (type/ave/delta/count) on step 5000
Bond:   1   1         2.44249e-15       50
      5000         450   0.4024683     -6.655166      -6.5433693     -0.76401109   
      5100         452   0.38555822    -6.6608961     -6.552138      -0.77684842   
      5200         454   0.31411513    -6.6574646     -6.5675198     -0.75566681   
      5300         456   0.37517342    -6.6606363     -6.5516221     -0.78102174   
      5400         458   0.33750612    -6.6575366     -6.5580534     -0.75015152   
      5500         460   0.34718141    -6.648833      -6.5450559     -0.76997809   
      5600         462   0.38928014    -6.6506817     -6.532718      -0.81660158   
      5700         464   0.47804066    -6.672464      -6.5256519     -0.73778375   
      5800         466   0.38992705    -6.6937156     -6.5723864     -0.66006866   
      5900         468   0.34470741    -6.7017779     -6.5931361     -0.75010503   
SHAKE stats (type/ave/delta/count) on step 6000
Bond:   1   1         2.22045e-15       60
      6000         470   0.3508489     -6.7100522     -6.5980792     -0.81037322   
      6100         472   0.36785216    -6.7156529     -6.5968024     -0.72234703   
      6200         474   0.35506936    -6.7264672     -6.610358      -0.78970764   
      6300         476   0.31767884    -6.717862      -6.6127477     -0.7250749    
      6400         478   0.3209877     -6.7128532     -6.6054096     -0.80763717   
      6500         480   0.36205233    -6.7196528     -6.597083      -0.68373568   
      6600         482   0.31029999    -6.71585       -6.609627      -0.79097254   
      6700         484   0.31482246    -6.7132831     -6.6043311     -0.80336705   
      6800         486   0.33957325    -6.7247179     -6.6059371     -0.7551899    
      6900         488   0.32372004    -6.72121       -6.6067802     -0.71143161   
SHAKE stats (type/ave/delta/count) on step 7000
Bond:   1   1         2.77556e-15       70
      7000         490   0.33036395    -6.7342048     -6.6162177     -0.75621762   
      7100         492   0.2844484     -6.703064      -6.6004429     -0.82828387   
      7200         494   0.31102443    -6.7005011     -6.5871723     -0.80450973   
      7300         496   0.41453836    -6.7282148     -6.5756881     -0.78478944   
      7400         498   0.30611249    -6.7045618     -6.5908453     -0.77183426   
      7500         500   0.31597057    -6.7046415     -6.5861526     -0.92454293   
      7600         502   0.36251824    -6.7259331     -6.588725      -0.85579467   
      7700         504   0.34913982    -6.7306485     -6.5972965     -0.734928     
      7800         506   0.34409296    -6.7358284     -6.6032234     -0.80511028   
      7900         508   0.31505617    -6.7353783     -6.6128909     -0.78318018   
SHAKE stats (type/ave/delta/count) on step 8000
Bond:   1   1         2.77556e-15       80
      8000         510   0.30721648    -6.7432645     -6.6227875     -0.83549128   
      8100         512   0.35585863    -6.7583552     -6.6176103     -0.78973072   
      8200         514   0.29405344    -6.7466045     -6.6293264     -0.83258417   
      8300         516   0.30093735    -6.7422284     -6.6212119     -0.884986     
      8400         518   0.31163343    -6.7527959     -6.626458      -0.89247939   
      8500         520   0.307257      -6.757342      -6.6317802     -0.86195059   
      8600         522   0.33164602    -6.7564128     -6.6198153     -0.84897755   
      8700         524   0.31266994    -6.7528854     -6.6231035     -0.84448688   
      8800         526   0.30588077    -6.7393782     -6.6114433     -0.83135863   
      8900         528   0.3424407     -6.7574018     -6.6130967     -0.92920922   
SHAKE stats (type/ave/delta/count) on step 9000
Bond:   1   1         2.77556e-15       90
      9000         530   0.3266589     -6.7468048     -6.6081288     -0.70952711   
      9100         532   0.32607934    -6.7520417     -6.6125999     -0.78509961   
      9200         534   0.34456558    -6.7632438     -6.6148354     -0.75709961   
      9300         536   0.3445121     -6.7657509     -6.6163123     -0.86317556   
      9400         538   0.33184516    -6.7587108     -6.6137598     -0.79523438   
      9500         540   0.30154776    -6.7534666     -6.6208414     -0.84462851   
      9600         542   0.33085117    -6.7600261     -6.6135238     -0.96136564   
      9700         544   0.36164989    -6.7811821     -6.6199687     -0.90225339   
      9800         546   0.34258816    -6.7826478     -6.6289224     -0.84584409   
      9900         548   0.31707554    -6.7917861     -6.6485813     -0.9060797    
SHAKE stats (type/ave/delta/count) on step 10000
Bond:   1   1         2.55351e-15      100
     10000         550   0.32278227    -6.7945427     -6.6478235     -0.93080839   
Loop time of 14.8712 on 8 procs for 10000 steps with 550 atoms

Performance: 290493.681 tau/day, 672.439 timesteps/s, 369.841 katom-step/s
87.6% CPU use with 8 MPI tasks x no OpenMP threads

MPI task timing breakdown:
Section |  min time  |  avg time  |  max time  |%varavg| %total
---------------------------------------------------------------
Pair    | 0.0047211  | 0.89981    | 2.6496     | 113.4 |  6.05
Bond    | 0.0039981  | 0.0064447  | 0.01004    |   2.7 |  0.04
Neigh   | 0.010805   | 0.46212    | 1.4685     |  85.7 |  3.11
Comm    | 5.5208     | 8.2801     | 9.7728     |  59.5 | 55.68
Output  | 0.065187   | 0.069917   | 0.081568   |   1.9 |  0.47
Modify  | 3.0533     | 3.4892     | 3.9147     |  14.8 | 23.46
Other   |            | 1.664      |            |       | 11.19

Nlocal:          68.75 ave         157 max           0 min
Histogram: 4 0 0 0 0 0 0 2 0 2
Nghost:         1520.5 ave        2165 max         403 min
Histogram: 2 0 0 0 0 2 0 0 0 4
Neighs:        4652.38 ave       12604 max           0 min
Histogram: 4 0 0 0 0 2 0 0 1 1

Total # of neighbors = 37219
Ave neighs/atom = 67.670909
Ave special neighs/atom = 0.36363636
Neighbor list builds = 847
Dangerous builds = 0
Total wall time: 0:00:15
