LAMMPS (17 Feb 2022)
# sample surface deposition script for molecules

units		lj
atom_style      bond
boundary        p p f

lattice		fcc 1.0
Lattice spacing in x,y,z = 1.5874011 1.5874011 1.5874011
region          box block 0 5 0 5 0 10
create_box      3 box bond/types 1 extra/bond/per/atom 1
Created orthogonal box = (0 0 0) to (7.9370053 7.9370053 15.874011)
  1 by 2 by 4 MPI processor grid

region		substrate block INF INF INF INF INF 3
create_atoms	1 region substrate
Created 350 atoms
  using lattice units in orthogonal box = (0 0 0) to (7.9370053 7.9370053 15.874011)
  create_atoms CPU = 0.002 seconds

pair_style	lj/cut 2.5
pair_coeff	* * 1.0 1.0
pair_coeff	1 2 1.0 1.0 5.0
mass		* 1.0

bond_style	harmonic
bond_coeff      1 5.0 1.0

neigh_modify	delay 0

group		addatoms type 2
0 atoms in group addatoms
region          mobile block 0 5 0 5 2 INF
group		mobile region mobile
150 atoms in group mobile

compute		add addatoms temp
compute_modify	add dynamic/dof yes extra/dof 0

fix		1 addatoms nve
fix		2 mobile langevin 0.1 0.1 0.1 587283
fix		3 mobile nve

molecule        dimer molecule.dimer.shake
Read molecule template dimer:
  1 molecules
  0 fragments
  2 atoms with max type 3
  1 bonds with max type 1
  0 angles with max type 0
  0 dihedrals with max type 0
  0 impropers with max type 0
region          slab block 0 5 0 5 8 9
fix		4 addatoms deposit 100 0 100 12345 region slab near 1.0                 mol dimer vz -1.0 -1.0 shake 6
fix		5 addatoms wall/reflect zhi EDGE
fix             6 all shake 0.0001 20 1000 b 1 mol dimer
       0 = # of size 2 clusters
       0 = # of size 3 clusters
       0 = # of size 4 clusters
       0 = # of frozen angles
  find clusters CPU = 0.013 seconds

thermo_style	custom step atoms temp epair etotal press
thermo          100
thermo_modify	temp add lost/bond ignore lost warn
WARNING: Temperature for thermo pressure is not for group all (src/thermo.cpp:476)

#dump		1 all atom 50 dump.deposit.atom

#dump		2 all image 50 image.*.jpg type type #		axes yes 0.8 0.02 view 80 -30
#dump_modify	2 pad 5

#dump		3 all movie 50 tmp.mpg type type #		axes yes 0.8 0.02 view 80 -30
#dump_modify	3 pad 5

run             10000
  generated 0 of 3 mixed pair_coeff terms from geometric mixing rule
Neighbor list info ...
  update every 1 steps, delay 0 steps, check yes
  max neighbors/atom: 2000, page size: 100000
  master list distance cutoff = 5.3
  ghost atom cutoff = 5.3
  binsize = 2.65, bins = 3 3 6
  1 neighbor lists, perpetual/occasional/extra = 1 0 0
  (1) pair lj/cut, perpetual
      attributes: half, newton on
      pair build: half/bin/newton
      stencil: half/bin/3d
      bin: standard
SHAKE stats (type/ave/delta/count) on step 0
Per MPI rank memory allocation (min/avg/max) = 4.825 | 4.959 | 5.075 Mbytes
Step Atoms Temp E_pair TotEng Press 
       0      350            0   -6.9215833   -6.9215833   -1.0052629 
     100      352    1.0079368   -6.8852191   -6.8780604  -0.72575301 
     200      354    1.0081552   -6.8545127   -6.8402732  -0.68713203 
     300      356    1.0085803   -6.8244691    -6.803221  -0.65389639 
     400      358    1.0099188   -6.7823126   -6.7541026  -0.68628643 
     500      360    1.0140221   -6.7506621    -6.715453  -0.71750459 
     600      362    1.0261418   -6.7064462   -6.6639265  -0.67831981 
     700      364    1.0683135   -6.6749955   -6.6236342  -0.67423603 
     800      366    1.0959778    -6.641634   -6.5817445  -0.66410097 
     900      368    1.1262085   -6.6106217   -6.5417638  -0.64913411 
SHAKE stats (type/ave/delta/count) on step 1000
Bond:   1   1         2.22045e-15       10
    1000      370    1.2436487   -6.5814109   -6.4973806  -0.69068445 
    1100      372   0.92307586   -6.5800162   -6.5117781  -0.64585329 
    1200      374   0.90550736   -6.5699018   -6.4972676  -0.66926013 
    1300      376   0.94883309   -6.5675495    -6.485536  -0.64058902 
    1400      378   0.90949447    -6.576921   -6.4927085  -0.67669237 
    1500      380   0.77775433   -6.5694001    -6.492648  -0.60751469 
    1600      382   0.82956399   -6.5708375   -6.4839722  -0.62207982 
    1700      384   0.68233583   -6.5688156   -6.4932966  -0.64979518 
    1800      386   0.63197742   -6.5657642   -6.4920881  -0.66374389 
    1900      388    0.8458029   -6.5704267   -6.4668813  -0.68083108 
SHAKE stats (type/ave/delta/count) on step 2000
Bond:   1   1         2.55351e-15       20
    2000      390   0.75734227   -6.5725884   -6.4754933  -0.68208674 
    2100      392   0.58637307   -6.5613379   -6.4828058  -0.65602656 
    2200      394   0.66930831   -6.5696117   -6.4761804  -0.66824775 
    2300      396   0.68018648   -6.5604556   -6.4616911  -0.67005983 
    2400      398    0.7565486   -6.5685412   -6.4544887  -0.69422167 
    2500      400   0.65738657   -6.5901256    -6.487409  -0.71685672 
    2600      402   0.60444531   -6.5933517    -6.495618  -0.68839771 
    2700      404   0.51233324    -6.592101   -6.5065008  -0.70022914 
    2800      406   0.48895409   -6.5905528   -6.5062504  -0.68920893 
    2900      408   0.46279767   -6.5992355   -6.5169981  -0.66235563 
SHAKE stats (type/ave/delta/count) on step 3000
Bond:   1   1         1.77636e-15       30
    3000      410   0.43796036   -6.5909919   -6.5108772  -0.63023804 
    3100      412   0.46363556   -6.5980994   -6.5108864  -0.71980891 
    3200      414   0.47973251   -6.5996146   -6.5069127  -0.72137978 
    3300      416   0.43432684   -6.5842232   -6.4980887  -0.70973394 
    3400      418   0.53026802   -6.6034591   -6.4956295  -0.70803658 
    3500      420   0.46852359   -6.6064669   -6.5088578  -0.64574352 
    3600      422   0.43176985    -6.614019   -6.5219354  -0.67867679 
    3700      424   0.44587814    -6.620868   -6.5235951  -0.79919774 
    3800      426   0.41258442   -6.6097047   -6.5176964  -0.75859328 
    3900      428   0.34545148   -6.6052651     -6.52657  -0.76695568 
SHAKE stats (type/ave/delta/count) on step 4000
Bond:   1   1         2.66454e-15       40
    4000      430   0.46525721   -6.6163434   -6.5081441  -0.73292439 
    4100      432   0.48703468    -6.640156    -6.524598  -0.76779394 
    4200      434   0.43451203   -6.6361469    -6.531023  -0.74203962 
    4300      436    0.4545771     -6.65124   -6.5391596  -0.74077162 
    4400      438   0.43879861   -6.6581799   -6.5479794  -0.76869705 
    4500      440   0.44360512    -6.659443   -6.5460212  -0.71858017 
    4600      442   0.43707689   -6.6607851    -6.547066  -0.69093379 
    4700      444   0.39804936   -6.6581343   -6.5527946  -0.75908937 
    4800      446   0.35289963   -6.6633021   -6.5683515  -0.75098165 
    4900      448   0.43097952   -6.6743223   -6.5564764  -0.74558941 
SHAKE stats (type/ave/delta/count) on step 5000
Bond:   1   1         2.44249e-15       50
    5000      450   0.40243306   -6.6551581   -6.5433711   -0.7639727 
    5100      452   0.38542262   -6.6607987   -6.5520788  -0.77666011 
    5200      454   0.31409975   -6.6574381   -6.5674976  -0.75521244 
    5300      456   0.37089486   -6.6597256   -6.5519547  -0.77442644 
    5400      458   0.34024875   -6.6507378   -6.5504461  -0.72926043 
    5500      460   0.35237707   -6.6494541    -6.544124  -0.79685117 
    5600      462   0.40824937   -6.6523275   -6.5286156   -0.8043271 
    5700      464   0.48753912    -6.680926   -6.5311969  -0.74214585 
    5800      466   0.38120009   -6.6664152   -6.5478014  -0.66081689 
    5900      468   0.35375424   -6.6640855   -6.5525924  -0.69470639 
SHAKE stats (type/ave/delta/count) on step 6000
Bond:   1   1         2.9976e-15        60
    6000      470   0.34675472   -6.6648619   -6.5541955   -0.7568866 
    6100      472    0.4186521    -6.691767   -6.5565033  -0.72258602 
    6200      474   0.35652563   -6.6909579   -6.5743726  -0.74683749 
    6300      476   0.35461524   -6.6926218   -6.5752858  -0.68595951 
    6400      478   0.38545138   -6.7183047   -6.5892833  -0.78603307 
    6500      480    0.3864446   -6.7227713   -6.5919437  -0.74503193 
    6600      482   0.33360023   -6.7158694   -6.6016701  -0.72460504 
    6700      484   0.31643764   -6.7326688   -6.6231579  -0.84353252 
    6800      486   0.32324895   -6.7267785   -6.6137078  -0.75926591 
    6900      488   0.35373253   -6.7355635   -6.6105248  -0.70790001 
SHAKE stats (type/ave/delta/count) on step 7000
Bond:   1   1         3.21965e-15       70
    7000      490   0.30629065   -6.7228534   -6.6134639  -0.75052345 
    7100      492   0.29253509   -6.7061978   -6.6006592  -0.78460478 
    7200      494   0.34481285   -6.7299026   -6.6042623  -0.80994231 
    7300      496   0.35250067   -6.7403295   -6.6106291  -0.70250247 
    7400      498   0.31113514    -6.720829   -6.6052467   -0.7803272 
    7500      500   0.33075815   -6.7127164   -6.5886821  -0.91792858 
    7600      502    0.2973318   -6.7025193   -6.5899833  -0.81192469 
    7700      504   0.31002608   -6.7053575   -6.5869447  -0.80709201 
    7800      506   0.33789026   -6.7119188   -6.5817042  -0.85601439 
    7900      508   0.33379862   -6.7206374   -6.5908633  -0.77567302 
SHAKE stats (type/ave/delta/count) on step 8000
Bond:   1   1         2.77556e-15       80
    8000      510   0.34836822    -6.736194    -6.599579  -0.75308642 
    8100      512   0.30010433   -6.7179554   -6.5992618  -0.72267718 
    8200      514   0.30103286   -6.7176407    -6.597579  -0.87147822 
    8300      516   0.29976466    -6.717057   -6.5965121  -0.93008043 
    8400      518   0.32714435   -6.7234685   -6.5908424   -0.8000835 
    8500      520   0.34641633   -6.7281759   -6.5866115  -0.77005241 
    8600      522   0.31132763   -6.7127409   -6.5845121   -0.7989079 
    8700      524    0.3176453   -6.7126291   -6.5807821  -0.89720244 
    8800      526   0.31711574   -6.7093952   -6.5767612  -0.88669301 
    8900      528   0.33837114   -6.7240254   -6.5814353  -0.83265273 
SHAKE stats (type/ave/delta/count) on step 9000
Bond:   1   1         2.77556e-15       90
    9000      530    0.3534816   -6.7238895   -6.5738266  -0.89540183 
    9100      532    0.3776498   -6.7415309   -6.5800359  -0.78471662 
    9200      534   0.36008303   -6.7387766   -6.5836846  -0.76983869 
    9300      536   0.36750082   -6.7439415   -6.5845312  -0.83507973 
    9400      538   0.34707337   -6.7505356    -6.598933  -0.85784866 
    9500      540   0.29793799   -6.7407964   -6.6097588  -0.91482143 
    9600      542   0.31974119   -6.7445848   -6.6030019  -0.95525052 
    9700      544   0.32529817   -6.7593259   -6.6143171  -0.70551919 
    9800      546   0.32822212   -6.7713848   -6.6241057  -0.77810668 
    9900      548   0.30086363   -6.7699646   -6.6340818  -0.80821877 
SHAKE stats (type/ave/delta/count) on step 10000
Bond:   1   1         3.21965e-15      100
   10000      550   0.33257615   -6.7805271   -6.6293562  -0.92925003 
Loop time of 5.89994 on 8 procs for 10000 steps with 550 atoms

Performance: 732210.660 tau/day, 1694.932 timesteps/s
94.8% CPU use with 8 MPI tasks x no OpenMP threads

MPI task timing breakdown:
Section |  min time  |  avg time  |  max time  |%varavg| %total
---------------------------------------------------------------
Pair    | 0.00293    | 0.71081    | 2.1391     | 101.0 | 12.05
Bond    | 0.0017995  | 0.0036155  | 0.007732   |   3.7 |  0.06
Neigh   | 0.0072828  | 0.37991    | 1.1915     |  77.1 |  6.44
Comm    | 1.557      | 3.5595     | 4.5397     |  61.4 | 60.33
Output  | 0.0065784  | 0.0083105  | 0.01344    |   2.4 |  0.14
Modify  | 0.71798    | 0.98877    | 1.1685     |  17.5 | 16.76
Other   |            | 0.249      |            |       |  4.22

Nlocal:          68.75 ave         152 max           0 min
Histogram: 4 0 0 0 0 0 0 2 0 2
Nghost:           1524 ave        2168 max         405 min
Histogram: 2 0 0 0 0 2 0 0 0 4
Neighs:        4584.75 ave       11759 max           0 min
Histogram: 4 0 0 0 0 2 0 0 0 2

Total # of neighbors = 36678
Ave neighs/atom = 66.687273
Ave special neighs/atom = 0.36363636
Neighbor list builds = 837
Dangerous builds = 0
Total wall time: 0:00:05
