LAMMPS (2 Aug 2023 - Development - bc02a7cc6)
# Tethered nanorods

atom_style	molecular

read_data	data.rigid.tnr
Reading data file ...
  orthogonal box = (-31.122 -31.122 -31.122) to (31.122 31.122 31.122)
  2 by 2 by 2 MPI processor grid
  reading atoms ...
  5600 atoms
  scanning bonds ...
  1 = max bonds/atom
  reading bonds ...
  1600 bonds
Finding 1-2 1-3 1-4 neighbors ...
  special bond factors lj:    0        0        0       
  special bond factors coul:  0        0        0       
     2 = max # of 1-2 neighbors
     1 = max # of 1-3 neighbors
     1 = max # of 1-4 neighbors
     2 = max # of special neighbors
  special bonds CPU = 0.001 seconds
  read_data CPU = 0.037 seconds

# Specify bond parameters

bond_style	fene
bond_coeff	1 30.0 1.5 1.0 1.0

special_bonds	fene
Finding 1-2 1-3 1-4 neighbors ...
  special bond factors lj:    0        1        1       
  special bond factors coul:  0        1        1       
     2 = max # of 1-2 neighbors
     2 = max # of special neighbors
  special bonds CPU = 0.000 seconds

# Specify initial velocities

velocity	all create 1.4 109345

# Specify rigid components

group		rods type 2
4000 atoms in group rods
group		tethers	subtract all rods
1600 atoms in group tethers

neigh_modify 	exclude	molecule/intra rods delay 0 every 1

# Specify the pair potentials

pair_style	lj/cut	2.5
pair_modify	shift	yes
pair_coeff	* * 1.0	1.0 1.122
pair_coeff	2 2 1.0 1.0 2.5

# Specify output

thermo	100
thermo_style custom step temp pe etotal press enthalpy lx ly lz pxx pyy pzz
thermo_modify flush yes lost warn

timestep	0.005

fix	1	rods	rigid molecule
  800 rigid bodies with 4000 atoms
fix	2	tethers	nve
fix	3	all	langevin 1.4 1.4 1.0 437624

run	5000
Generated 0 of 1 mixed pair_coeff terms from geometric mixing rule
Neighbor list info ...
  update: every = 1 steps, delay = 0 steps, check = yes
  max neighbors/atom: 2000, page size: 100000
  master list distance cutoff = 2.8
  ghost atom cutoff = 2.8
  binsize = 1.4, bins = 45 45 45
  1 neighbor lists, perpetual/occasional/extra = 1 0 0
  (1) pair lj/cut, perpetual
      attributes: half, newton on
      pair build: half/bin/newton
      stencil: half/bin/3d
      bin: standard
Per MPI rank memory allocation (min/avg/max) = 7.445 | 7.448 | 7.451 Mbytes
   Step          Temp          PotEng         TotEng         Press         Enthalpy          Lx             Ly             Lz            Pxx            Pyy            Pzz      
         0   1.3963219      5.9478449      7.0445809      0.048565317    9.13595        62.244         62.244         62.244         0.0091983659   0.11850113     0.017996458  
       100   1.3815526      5.9617944      7.04693        0.023057124    8.0398393      62.244         62.244         62.244         0.0062946496   0.046495566    0.016381157  
       200   1.3865483      5.9871855      7.0762449      0.00056516442  7.1005826      62.244         62.244         62.244        -0.0075237322   0.0054216692   0.0037975562 
       300   1.3881513      5.9822898      7.0726083      0.0069920835   7.3737085      62.244         62.244         62.244         0.0080307095   0.0024605856   0.010484955  
       400   1.3805188      5.9896219      7.0739454      0.014454006    7.6963785      62.244         62.244         62.244         0.020977338    0.010990028    0.011394651  
       500   1.4139549      5.9815744      7.0921603      0.0035537046   7.2451935      62.244         62.244         62.244        -0.00097348887  0.0071875143   0.0044470884 
       600   1.3849993      5.9847195      7.0725623      0.0087253257   7.4483011      62.244         62.244         62.244         0.0079522284   0.0071948805   0.011028868  
       700   1.4201424      5.983008       7.0984538      0.012879614    7.6530889      62.244         62.244         62.244         0.01358885     0.014514751    0.010535243  
       800   1.4050078      5.9843793      7.0879377      0.0015832909   7.1561189      62.244         62.244         62.244        -0.00068884329 -3.9037004e-05  0.005477753  
       900   1.4070664      5.9885704      7.0937457      0.0090288859   7.4825568      62.244         62.244         62.244         0.0051642561   0.01088401     0.011038392  
      1000   1.3958895      5.9754363      7.0718328     -0.0014006857   7.011515       62.244         62.244         62.244        -0.0068594786   0.0012349667   0.0014224548 
      1100   1.434154       5.9670293      7.0934805      0.0030926151   7.2266578      62.244         62.244         62.244         0.0048951745   0.00045967423  0.0039229966 
      1200   1.4136038      5.9814389      7.091749      -3.1932522e-05  7.0903739      62.244         62.244         62.244         0.0010331081   0.0004654415  -0.0015943471 
      1300   1.42463        5.9709265      7.089897       0.0040878115   7.2659305      62.244         62.244         62.244         0.0061720569   0.0057035349   0.00038784272
      1400   1.4660113      5.9639298      7.1154032      0.0057044769   7.3610551      62.244         62.244         62.244         0.010127594    0.0069169854   6.8851376e-05
      1500   1.4026352      5.9693135      7.0710083      0.0085734748   7.440208       62.244         62.244         62.244         0.0065452962   0.012340426    0.0068347019 
      1600   1.4067903      5.975697       7.0806555      0.0054734007   7.3163566      62.244         62.244         62.244        -0.001955129    0.011850476    0.0065248553 
      1700   1.4148119      5.9548112      7.0660701      0.0042176318   7.2476941      62.244         62.244         62.244         0.003021493    0.0041490338   0.0054823686 
      1800   1.3984161      5.9511961      7.049577       0.010618474    7.5068406      62.244         62.244         62.244         0.0048365897   0.018355694    0.0086631377 
      1900   1.3740665      5.955697       7.0349526      0.0052547806   7.2612393      62.244         62.244         62.244         0.0018033687   0.0067900592   0.0071709139 
      2000   1.4427151      5.9340487      7.0672241      0.0044335242   7.258145       62.244         62.244         62.244         0.0052870637   0.0068061722   0.0012073368 
      2100   1.4280267      5.9481618      7.0698003      0.0092659998   7.4688222      62.244         62.244         62.244         0.0071460399   0.0070190708   0.013632889  
      2200   1.3808083      5.9537892      7.0383402     -0.0011654095   6.9881542      62.244         62.244         62.244        -0.0003695931  -0.0037975299   0.00067089445
      2300   1.4069092      5.9446369      7.0496887      0.0076078859   7.3773072      62.244         62.244         62.244         0.0084916342   0.0053459448   0.0089860785 
      2400   1.429277       5.9480433      7.0706638      0.0061199937   7.3342092      62.244         62.244         62.244         0.0028553439   0.0072542582   0.0082503789 
      2500   1.3948047      5.9466935      7.0422378      0.0015628652   7.1095395      62.244         62.244         62.244         0.00024515513  0.0052702023  -0.00082676171
      2600   1.3901038      5.937153       7.029005       0.0015081601   7.093951       62.244         62.244         62.244         0.00092961663  0.00073365504  0.0028612085 
      2700   1.3925603      5.938459       7.0322406      0.00199994     7.118364       62.244         62.244         62.244         0.0052953117   0.0035244678  -0.0028199595 
      2800   1.3880804      5.9292714      7.0195342      0.0060014617   7.2779753      62.244         62.244         62.244         0.0055084899   0.010842194    0.0016537017 
      2900   1.3945083      5.925954       7.0212655      0.0049176801   7.2330357      62.244         62.244         62.244         0.0056872039   0.0038455534   0.0052202831 
      3000   1.3962354      5.9280533      7.0247214      0.0023891661   7.1276061      62.244         62.244         62.244         0.0013588773   0.0021996958   0.0036089251 
      3100   1.3784838      5.9152388      6.997964       0.005009419    7.2136847      62.244         62.244         62.244         0.0048391308   0.0096113471   0.00057777907
      3200   1.4058057      5.9116538      7.0158389      0.0027795596   7.1355351      62.244         62.244         62.244         0.0022035413   0.0023289878   0.0038061497 
      3300   1.4270865      5.9058944      7.0267944      0.0033024956   7.1690098      62.244         62.244         62.244         0.010633226   -0.00072986795  4.1288157e-06
      3400   1.4287571      5.9156933      7.0379055      0.0034275524   7.1855063      62.244         62.244         62.244         0.0059318568   0.0042543851   9.6415391e-05
      3500   1.424229       5.9044911      7.0231467      0.0061801266   7.2892816      62.244         62.244         62.244         0.0065188826   0.0053264813   0.0066950158 
      3600   1.3879087      5.9113838      7.0015117     -0.00057458297  6.9767684      62.244         62.244         62.244        -0.00066758355  0.00085692723 -0.0019130926 
      3700   1.4068783      5.8959283      7.0009558      0.0082687394   7.3570327      62.244         62.244         62.244         0.0084886419   0.0083078439   0.0080097324 
      3800   1.4221256      5.8926754      7.0096789      0.0045000008   7.2034625      62.244         62.244         62.244         0.0078322779   0.0059896726  -0.00032194792
      3900   1.3760828      5.8984033      6.9792427      0.0033510609   7.1235495      62.244         62.244         62.244         0.0023077511   0.00086974728  0.0068756845 
      4000   1.371553       5.91022        6.9875014      0.0046937281   7.1896275      62.244         62.244         62.244         0.0083095381   0.0053764997   0.00039514643
      4100   1.3856843      5.9023749      6.9907557      0.0011166539   7.0388422      62.244         62.244         62.244         0.00067974114 -0.0007792668   0.0034494875 
      4200   1.4043623      5.8998076      7.0028589      0.0094843365   7.4112831      62.244         62.244         62.244         0.01059059     0.0053067038   0.012555716  
      4300   1.4172217      5.8857113      6.998863       0.002785401    7.1188108      62.244         62.244         62.244         0.0060230373   0.0016485787   0.00068458715
      4400   1.4237177      5.9087983      7.0270522      0.0042477516   7.2099732      62.244         62.244         62.244         0.0050553246   0.00092405497  0.0067638751 
      4500   1.3817497      5.9107669      6.9960573      0.0064608459   7.2742808      62.244         62.244         62.244         0.005410915    0.0083057158   0.0056659069 
      4600   1.4149216      5.904067       7.0154121      0.011824579    7.5246141      62.244         62.244         62.244         0.013463731    0.010073334    0.011936673  
      4700   1.4260637      5.9043683      7.0244649     -0.00086023402  6.9874207      62.244         62.244         62.244         0.0055058676  -0.0066615405  -0.0014250291 
      4800   1.3964014      5.8912343      6.9880328      0.010365083    7.4343846      62.244         62.244         62.244         0.011035574    0.0090361671   0.011023507  
      4900   1.375423       5.8884691      6.9687901      0.010664769    7.4280472      62.244         62.244         62.244         0.014947402    0.0095143516   0.0075325529 
      5000   1.4012863      5.9005727      7.001208      -0.0041693723   6.8216623      62.244         62.244         62.244        -0.007299363   -7.1748641e-05 -0.0051370053 
Loop time of 4.6238 on 8 procs for 5000 steps with 5600 atoms

Performance: 467148.326 tau/day, 1081.362 timesteps/s, 6.056 Matom-step/s
93.7% CPU use with 8 MPI tasks x no OpenMP threads

MPI task timing breakdown:
Section |  min time  |  avg time  |  max time  |%varavg| %total
---------------------------------------------------------------
Pair    | 0.056805   | 0.10013    | 0.14688    |  11.0 |  2.17
Bond    | 0.02795    | 0.042994   | 0.066072   |   6.7 |  0.93
Neigh   | 0.66802    | 0.67764    | 0.6841     |   0.6 | 14.66
Comm    | 0.40861    | 0.46149    | 0.51515    |   5.6 |  9.98
Output  | 0.0040706  | 0.006781   | 0.0087173  |   1.5 |  0.15
Modify  | 2.7139     | 2.8328     | 3.2344     |   9.5 | 61.27
Other   |            | 0.5019     |            |       | 10.86

Nlocal:            700 ave         947 max         472 min
Histogram: 3 1 0 0 0 0 0 0 1 3
Nghost:         449.75 ave         531 max         337 min
Histogram: 1 0 0 2 1 0 1 0 1 2
Neighs:         594.25 ave         917 max         302 min
Histogram: 2 1 1 0 0 0 0 2 1 1

Total # of neighbors = 4754
Ave neighs/atom = 0.84892857
Ave special neighs/atom = 0.57142857
Neighbor list builds = 761
Dangerous builds = 0

# Replace fix rigid and fix langevin with new ones

unfix	1
unfix	3

fix	3	tethers langevin 1.4 1.4 1.0 198450

# Test different integrators for rods

fix	1 rods	rigid/nve molecule
  800 rigid bodies with 4000 atoms
print 	"rigid/nve"
rigid/nve
run	1000
Generated 0 of 1 mixed pair_coeff terms from geometric mixing rule
Per MPI rank memory allocation (min/avg/max) = 7.447 | 7.452 | 7.458 Mbytes
   Step          Temp          PotEng         TotEng         Press         Enthalpy          Lx             Ly             Lz            Pxx            Pyy            Pzz      
      5000   1.4012863      5.9005727      7.001208      -0.0088271832   6.6210829      62.244         62.244         62.244        -0.038235203    0.039940521   -0.028186867  
      5100   1.3988962      5.9002349      6.9989929     -0.0015366121   6.9328218      62.244         62.244         62.244        -0.0010158913  -0.0011789418  -0.0024150031 
      5200   1.4119374      5.9001102      7.0091114      0.0057898852   7.2584413      62.244         62.244         62.244         0.0070198928   0.0065213192   0.0038284435 
      5300   1.4004377      5.8980648      6.9980336      0.0062016759   7.2650965      62.244         62.244         62.244         0.0053344022   0.0056904298   0.0075801957 
      5400   1.4080173      5.8908342      6.9967564      0.0026635729   7.1114579      62.244         62.244         62.244         0.0026530543   0.0023606903   0.0029769742 
      5500   1.3822784      5.8929328      6.9786385      0.0021930074   7.073076       62.244         62.244         62.244        -0.00018403185  0.0057781668   0.00098488744
      5600   1.4189254      5.8702318      6.9847217      0.011131579    7.4640811      62.244         62.244         62.244         0.013196112    0.014363203    0.0058354224 
      5700   1.4154471      5.8876664      6.9994243      0.0062922289   7.2703867      62.244         62.244         62.244         0.0045468115   0.0064751031   0.007854772  
      5800   1.4089803      5.8857233      6.9924018      0.0056147993   7.234192       62.244         62.244         62.244         0.0021685554   0.005931973    0.0087438693 
      5900   1.4310567      5.8840187      7.0080371      0.005454031    7.2429041      62.244         62.244         62.244         0.0038655007   0.004009136    0.0084874562 
      6000   1.416106       5.8764996      6.988775       0.0022860391   7.0872187      62.244         62.244         62.244         0.0015088539   0.0034783266   0.0018709367 
Loop time of 1.09829 on 8 procs for 1000 steps with 5600 atoms

Performance: 393340.428 tau/day, 910.510 timesteps/s, 5.099 Matom-step/s
93.7% CPU use with 8 MPI tasks x no OpenMP threads

MPI task timing breakdown:
Section |  min time  |  avg time  |  max time  |%varavg| %total
---------------------------------------------------------------
Pair    | 0.01458    | 0.028823   | 0.046942   |   6.5 |  2.62
Bond    | 0.0053112  | 0.0091101  | 0.012624   |   2.9 |  0.83
Neigh   | 0.1387     | 0.1397     | 0.14071    |   0.2 | 12.72
Comm    | 0.079996   | 0.10092    | 0.11908    |   4.2 |  9.19
Output  | 0.0010065  | 0.0012758  | 0.0014879  |   0.4 |  0.12
Modify  | 0.64487    | 0.70385    | 0.7632     |   3.9 | 64.09
Other   |            | 0.1146     |            |       | 10.44

Nlocal:            700 ave         949 max         444 min
Histogram: 2 2 0 0 0 0 0 0 2 2
Nghost:          431.5 ave         593 max         316 min
Histogram: 1 2 0 1 1 1 1 0 0 1
Neighs:          696.5 ave        1171 max         353 min
Histogram: 3 0 1 0 0 2 0 1 0 1

Total # of neighbors = 5572
Ave neighs/atom = 0.995
Ave special neighs/atom = 0.57142857
Neighbor list builds = 153
Dangerous builds = 0
unfix	1

fix	1 rods	rigid/nvt molecule temp 1.4 1.4 1.0
  800 rigid bodies with 4000 atoms
print 	"rigid/nvt"
rigid/nvt
run	1000
Generated 0 of 1 mixed pair_coeff terms from geometric mixing rule
Per MPI rank memory allocation (min/avg/max) = 7.447 | 7.452 | 7.458 Mbytes
   Step          Temp          PotEng         TotEng         Press         Enthalpy          Lx             Ly             Lz            Pxx            Pyy            Pzz      
      6000   1.416106       5.8764996      6.988775      -0.0030991273   6.8553172      62.244         62.244         62.244         0.056341504    0.0062937477  -0.071932633  
      6100   1.4086173      5.8646607      6.9710541      0.0037473978   7.1324283      62.244         62.244         62.244         0.0058351059   0.0025058953   0.0029011922 
      6200   1.3773077      5.8758565      6.9576578      0.002778736    7.0773186      62.244         62.244         62.244         0.0014490934   0.0035169776   0.003370137  
      6300   1.3840872      5.8705946      6.957721       0.0051273592   7.1785205      62.244         62.244         62.244         0.0018936144   0.0072401524   0.0062483108 
      6400   1.3830509      5.8818492      6.9681616      0.0017015018   7.0414334      62.244         62.244         62.244         0.00085819659 -0.0012037924   0.0054501013 
      6500   1.3798156      5.8884169      6.9721882      0.0014636447   7.0352172      62.244         62.244         62.244        -0.00038578855  0.0035648767   0.0012118458 
      6600   1.3783853      5.8609834      6.9436311      0.00065261199  6.9717346      62.244         62.244         62.244         0.0055265541  -0.00040727566 -0.0031614425 
      6700   1.3722744      5.8818426      6.9596905      0.0077113858   7.2917661      62.244         62.244         62.244         0.0072004736   0.007156975    0.0087767089 
      6800   1.4060631      5.880317       6.9847042      0.0017099696   7.0583407      62.244         62.244         62.244         0.0013253436   0.00074069169  0.0030638736 
      6900   1.3891042      5.8812253      6.9722922      0.0032262112   7.1112226      62.244         62.244         62.244         0.0024522409   0.0048861657   0.0023402268 
      7000   1.4177533      5.8740438      6.9876131      0.00049360112  7.008869       62.244         62.244         62.244        -0.0014977446   0.0035094559  -0.0005309079 
Loop time of 1.09835 on 8 procs for 1000 steps with 5600 atoms

Performance: 393316.904 tau/day, 910.456 timesteps/s, 5.099 Matom-step/s
94.0% CPU use with 8 MPI tasks x no OpenMP threads

MPI task timing breakdown:
Section |  min time  |  avg time  |  max time  |%varavg| %total
---------------------------------------------------------------
Pair    | 0.018726   | 0.03156    | 0.046648   |   6.8 |  2.87
Bond    | 0.005862   | 0.009417   | 0.012659   |   3.0 |  0.86
Neigh   | 0.129      | 0.1301     | 0.13123    |   0.2 | 11.85
Comm    | 0.082682   | 0.09991    | 0.11691    |   4.7 |  9.10
Output  | 0.0010802  | 0.0013314  | 0.0016962  |   0.6 |  0.12
Modify  | 0.63992    | 0.73157    | 0.78176    |   4.7 | 66.61
Other   |            | 0.09447    |            |       |  8.60

Nlocal:            700 ave         940 max         462 min
Histogram: 3 1 0 0 0 0 0 0 1 3
Nghost:        434.625 ave         546 max         319 min
Histogram: 1 0 2 0 1 1 1 0 1 1
Neighs:        717.625 ave        1104 max         387 min
Histogram: 2 1 1 0 0 0 1 1 1 1

Total # of neighbors = 5741
Ave neighs/atom = 1.0251786
Ave special neighs/atom = 0.57142857
Neighbor list builds = 154
Dangerous builds = 0
unfix	1

compute	myTemp all temp

fix	1 rods	rigid/npt molecule temp 1.4 1.4 1.0 iso 0.05 0.05 1.0         dilate all
  800 rigid bodies with 4000 atoms
print 	"rigid/npt iso"
rigid/npt iso
fix_modify 1 temp myTemp

run	1000
Generated 0 of 1 mixed pair_coeff terms from geometric mixing rule
Per MPI rank memory allocation (min/avg/max) = 7.447 | 7.452 | 7.458 Mbytes
   Step          Temp          PotEng         TotEng         Press         Enthalpy          Lx             Ly             Lz            Pxx            Pyy            Pzz      
      7000   1.4177533      5.8740438      6.9876131     -0.0015957467   6.9188954      62.244         62.244         62.244        -0.013282649    0.0023589843   0.0061364244 
      7100   1.4645137      5.8646537      7.0149508      0.019245301    7.6524178      57.030481      57.030481      57.030481      0.019755647    0.016218644    0.02176161   
      7200   1.5126298      5.8379021      7.0259918      0.021970481    7.5261338      50.328494      50.328494      50.328494      0.021549426    0.021539308    0.02282271   
      7300   1.58742        5.7934575      7.0402909      0.029631352    7.5318254      45.289431      45.289431      45.289431      0.027516239    0.030006614    0.031371202  
      7400   1.5309614      5.7543019      6.9567901      0.028951613    7.3324233      41.72789       41.72789       41.72789       0.038877093    0.029821432    0.018156313  
      7500   1.5515319      5.7315336      6.9501787      0.043171971    7.4080121      39.014963      39.014963      39.014963      0.042682976    0.03567885     0.051154087  
      7600   1.5447375      5.6853534      6.898662       0.051846708    7.3616506      36.842214      36.842214      36.842214      0.04686077     0.03031533     0.078364023  
      7700   1.5125728      5.6349852      6.8230301      0.047031159    7.1901302      35.225914      35.225914      35.225914      0.013282409    0.087483457    0.040327611  
      7800   1.4954122      5.6097859      6.7843521      0.053957119    7.162945       33.996738      33.996738      33.996738      0.070798096    0.046977326    0.044095934  
      7900   1.5009187      5.5733666      6.7522578      0.054060046    7.1029936      33.120528      33.120528      33.120528      0.05072715     0.04363283     0.067820157  
      8000   1.4899146      5.5444641      6.7147121      0.070193797    7.1448411      32.495957      32.495957      32.495957      0.065941979    0.085773816    0.058865596  
Loop time of 1.7731 on 8 procs for 1000 steps with 5600 atoms

Performance: 243640.901 tau/day, 563.984 timesteps/s, 3.158 Matom-step/s
94.4% CPU use with 8 MPI tasks x no OpenMP threads

MPI task timing breakdown:
Section |  min time  |  avg time  |  max time  |%varavg| %total
---------------------------------------------------------------
Pair    | 0.038939   | 0.076959   | 0.11783    |  11.1 |  4.34
Bond    | 0.0070539  | 0.011807   | 0.016849   |   3.0 |  0.67
Neigh   | 0.47946    | 0.48215    | 0.48459    |   0.2 | 27.19
Comm    | 0.17742    | 0.215      | 0.25225    |   6.3 | 12.13
Output  | 0.00078474 | 0.00086563 | 0.0013003  |   0.0 |  0.05
Modify  | 0.83643    | 0.87844    | 0.92957    |   2.9 | 49.54
Other   |            | 0.1079     |            |       |  6.08

Nlocal:            700 ave         938 max         473 min
Histogram: 3 1 0 0 0 0 0 0 3 1
Nghost:        1012.75 ave        1165 max         871 min
Histogram: 1 1 1 0 1 1 1 1 0 1
Neighs:        3148.75 ave        5060 max        1580 min
Histogram: 4 0 0 0 0 0 0 2 0 2

Total # of neighbors = 25190
Ave neighs/atom = 4.4982143
Ave special neighs/atom = 0.57142857
Neighbor list builds = 337
Dangerous builds = 0
unfix	1

fix	1 rods	rigid/npt molecule temp 1.4 1.4 1.0 x 0.05 0.05 1.0 dilate all
  800 rigid bodies with 4000 atoms
print 	"rigid/npt x"
rigid/npt x
run	1000
Generated 0 of 1 mixed pair_coeff terms from geometric mixing rule
Per MPI rank memory allocation (min/avg/max) = 7.452 | 7.46 | 7.472 Mbytes
   Step          Temp          PotEng         TotEng         Press         Enthalpy          Lx             Ly             Lz            Pxx            Pyy            Pzz      
      8000   1.4899146      5.5444641      6.7147121      0.027591186    6.8837836      32.495957      32.495957      32.495957     -0.17163811     0.18273774     0.071673934  
      8100   1.4733453      5.5510433      6.7082771      0.018609345    6.8210957      32.149865      32.495957      32.495957      0.014972166   -0.0048070906   0.045662959  
      8200   1.4638239      5.5148846      6.6646399      0.026239771    6.8209117      31.582755      32.495957      32.495957      0.052127698    0.01935592     0.0072356944 
      8300   1.4588079      5.4862745      6.63209        0.011093257    6.6968205      30.944192      32.495957      32.495957      0.064361942   -0.015644376   -0.015437796  
      8400   1.4358471      5.470136       6.597917       0.019304995    6.7087856      30.455655      32.495957      32.495957      0.027274514    0.0053593917   0.025281078  
      8500   1.4313196      5.4468286      6.5710535      0.028702075    6.7333814      29.992264      32.495957      32.495957      0.059391782    0.041855938   -0.015141496  
      8600   1.4191934      5.4262721      6.5409725      0.020919885    6.6576208      29.569824      32.495957      32.495957      0.022450382    0.042563679   -0.0022544056 
      8700   1.4349034      5.4116009      6.5386406      0.041754193    6.7669395      28.995667      32.495957      32.495957      0.046401131    0.056518781    0.022342666  
      8800   1.4309704      5.4103487      6.5342992      0.041598323    6.7576878      28.478322      32.495957      32.495957      0.049986206    0.019560435    0.055248326  
      8900   1.4455037      5.3961886      6.5315543     -0.0049036411   6.5056487      28.015889      32.495957      32.495957     -0.0069353258  -0.040107844    0.032332246  
      9000   1.4402546      5.3852047      6.5164476      0.029254673    6.6679283      27.459429      32.495957      32.495957      0.043553998    0.024145989    0.020064031  
Loop time of 1.73224 on 8 procs for 1000 steps with 5600 atoms

Performance: 249387.659 tau/day, 577.286 timesteps/s, 3.233 Matom-step/s
95.8% CPU use with 8 MPI tasks x no OpenMP threads

MPI task timing breakdown:
Section |  min time  |  avg time  |  max time  |%varavg| %total
---------------------------------------------------------------
Pair    | 0.058611   | 0.12152    | 0.1737     |  12.7 |  7.02
Bond    | 0.0067183  | 0.011929   | 0.01656    |   2.7 |  0.69
Neigh   | 0.35959    | 0.36073    | 0.36198    |   0.1 | 20.82
Comm    | 0.20048    | 0.24631    | 0.30352    |   7.3 | 14.22
Output  | 0.00078383 | 0.00087195 | 0.0013716  |   0.0 |  0.05
Modify  | 0.81872    | 0.88716    | 0.93305    |   4.4 | 51.21
Other   |            | 0.1037     |            |       |  5.99

Nlocal:            700 ave         909 max         525 min
Histogram: 3 0 1 0 0 0 0 2 1 1
Nghost:        1100.25 ave        1292 max         932 min
Histogram: 2 0 0 2 1 0 1 0 1 1
Neighs:        3897.12 ave        6239 max        2219 min
Histogram: 3 1 0 0 0 0 2 0 1 1

Total # of neighbors = 31177
Ave neighs/atom = 5.5673214
Ave special neighs/atom = 0.57142857
Neighbor list builds = 168
Dangerous builds = 0
unfix	1

fix	1 rods	rigid/nph molecule iso 0.05 0.05 1.0 dilate all
  800 rigid bodies with 4000 atoms
print 	"rigid/nph iso"
rigid/nph iso
run	1000
Generated 0 of 1 mixed pair_coeff terms from geometric mixing rule
Per MPI rank memory allocation (min/avg/max) = 7.453 | 7.463 | 7.475 Mbytes
   Step          Temp          PotEng         TotEng         Press         Enthalpy          Lx             Ly             Lz            Pxx            Pyy            Pzz      
      9000   1.4402546      5.3852047      6.5164476      0.19255136     7.5134787      27.459429      32.495957      32.495957      0.43748114     0.075391746    0.06478119   
      9100   1.4318799      5.3529         6.4775649      0.081397273    6.8904547      27.271699      32.273794      32.273794      0.11932378     0.048931698    0.075936339  
      9200   1.4421953      5.3216472      6.4544144     -0.013251301    6.38898        27.028372      31.985836      31.985836     -0.018894811   -0.018549862   -0.0023092282 
      9300   1.4651896      5.2964398      6.4472677      0.10573826     6.9567399      26.808153      31.725225      31.725225      0.15151927     0.056354751    0.10934076   
      9400   1.4762011      5.2599965      6.4194734      0.033270173    6.5764611      26.62202       31.504954      31.504954     -0.011328784    0.046240407    0.064898895  
      9500   1.4369597      5.2599441      6.3885989      0.037936386    6.5624192      26.36244       31.197761      31.197761      0.05015086     0.028774505    0.034883794  
      9600   1.4549324      5.2625012      6.4052727      0.088777827    6.8055006      26.220345      31.029605      31.029605      0.098335768    0.10001288     0.06798483   
      9700   1.4742614      5.266552       6.4245054      0.050145161    6.6485667      26.142679      30.937693      30.937693      0.063636269    0.034854744    0.051944472  
      9800   1.4555657      5.2429593      6.3862282      0.055739543    6.6354758      26.149295      30.945523      30.945523      0.0089595912   0.051195746    0.10706329   
      9900   1.4515053      5.2318758      6.3719555      0.06947583     6.6793501      26.057034      30.836339      30.836339      0.067049088    0.098045469    0.043332932  
     10000   1.4629848      5.2180756      6.3671718      0.036244501    6.5248706      25.911914      30.664601      30.664601      0.033493853    0.013544823    0.061694827  
Loop time of 1.83855 on 8 procs for 1000 steps with 5600 atoms

Performance: 234967.165 tau/day, 543.905 timesteps/s, 3.046 Matom-step/s
95.2% CPU use with 8 MPI tasks x no OpenMP threads

MPI task timing breakdown:
Section |  min time  |  avg time  |  max time  |%varavg| %total
---------------------------------------------------------------
Pair    | 0.081601   | 0.14778    | 0.24369    |  14.2 |  8.04
Bond    | 0.0086334  | 0.012165   | 0.015933   |   2.2 |  0.66
Neigh   | 0.40979    | 0.41126    | 0.41248    |   0.1 | 22.37
Comm    | 0.19587    | 0.27922    | 0.33619    |   8.6 | 15.19
Output  | 0.0007644  | 0.00084524 | 0.0013089  |   0.0 |  0.05
Modify  | 0.84561    | 0.88517    | 0.91943    |   2.5 | 48.14
Other   |            | 0.1021     |            |       |  5.55

Nlocal:            700 ave         886 max         519 min
Histogram: 2 1 0 1 0 0 1 1 1 1
Nghost:        1173.38 ave        1337 max        1063 min
Histogram: 2 2 0 0 1 0 1 1 0 1
Neighs:        4710.62 ave        7032 max        2921 min
Histogram: 3 0 1 0 0 0 2 0 1 1

Total # of neighbors = 37685
Ave neighs/atom = 6.7294643
Ave special neighs/atom = 0.57142857
Neighbor list builds = 163
Dangerous builds = 0
unfix	1

fix	1 rods	rigid/nph molecule x 0.05 0.05 1.0 y 0.05 0.05 1.0         couple xy dilate all
  800 rigid bodies with 4000 atoms
print 	"rigid/nph xy couple"
rigid/nph xy couple
run	1000
Generated 0 of 1 mixed pair_coeff terms from geometric mixing rule
Per MPI rank memory allocation (min/avg/max) = 7.458 | 7.465 | 7.476 Mbytes
   Step          Temp          PotEng         TotEng         Press         Enthalpy          Lx             Ly             Lz            Pxx            Pyy            Pzz      
     10000   1.4629848      5.2180756      6.3671718     -0.0057424146   6.3421868      25.911914      30.664601      30.664601      0.066611291    0.15868357    -0.2425221    
     10100   1.4614591      5.1902889      6.3381868      0.099958846    6.7706962      25.840066      30.579575      30.664601      0.11503703     0.082278246    0.10256126   
     10200   1.4568269      5.1961583      6.3404178      0.010780539    6.3868325      25.775895      30.503635      30.664601     -0.015899256    0.031382104    0.01685877   
     10300   1.4198877      5.2064259      6.3216716      0.032415556    6.4604999      25.708022      30.423312      30.664601      0.058810145   -0.0096475141   0.048084036  
     10400   1.4142442      5.2192941      6.3301072      0.0186558      6.4089397      25.535964      30.219696      30.664601      0.01597145     0.034999337    0.0049966134 
     10500   1.4151365      5.1702306      6.2817445      0.082305884    6.6260897      25.409027      30.069477      30.664601      0.061368782    0.087719713    0.097829157  
     10600   1.4301504      5.1682537      6.2915602      0.030814767    6.4189078      25.253548      29.88548       30.664601      0.0041459584   0.020683316    0.067615025  
     10700   1.4495377      5.1445921      6.2831263      0.054161325    6.5031436      25.037455      29.629752      30.664601      0.10109383     0.068858631   -0.0074684865 
     10800   1.4411144      5.1432829      6.2752011      0.054921215    6.4964462      24.932926      29.50605       30.664601      0.054939042    0.033659463    0.076165139  
     10900   1.4299196      5.1328628      6.255988       0.12047469     6.7390954      24.875991      29.438673      30.664601      0.051066613    0.15236977     0.15798769   
     11000   1.436266       5.1262728      6.2543828      0.069240514    6.5315101      24.852261      29.41059       30.664601      0.11733582     0.01451048     0.075875241  
Loop time of 1.78457 on 8 procs for 1000 steps with 5600 atoms

Performance: 242075.696 tau/day, 560.360 timesteps/s, 3.138 Matom-step/s
95.2% CPU use with 8 MPI tasks x no OpenMP threads

MPI task timing breakdown:
Section |  min time  |  avg time  |  max time  |%varavg| %total
---------------------------------------------------------------
Pair    | 0.088821   | 0.15619    | 0.23915    |  11.6 |  8.75
Bond    | 0.0079057  | 0.011563   | 0.014545   |   1.9 |  0.65
Neigh   | 0.37799    | 0.37904    | 0.38023    |   0.1 | 21.24
Comm    | 0.1943     | 0.26811    | 0.32779    |   7.6 | 15.02
Output  | 0.00073706 | 0.00081893 | 0.0012799  |   0.0 |  0.05
Modify  | 0.79806    | 0.85874    | 0.89372    |   3.4 | 48.12
Other   |            | 0.1101     |            |       |  6.17

Nlocal:            700 ave         817 max         561 min
Histogram: 2 1 0 0 0 0 2 0 0 3
Nghost:        1231.62 ave        1342 max        1128 min
Histogram: 2 1 1 0 0 1 0 0 0 3
Neighs:        5135.88 ave        6970 max        3219 min
Histogram: 2 1 0 0 1 1 0 0 0 3

Total # of neighbors = 41087
Ave neighs/atom = 7.3369643
Ave special neighs/atom = 0.57142857
Neighbor list builds = 156
Dangerous builds = 0

Total wall time: 0:00:14
