LAMMPS (2 Aug 2023 - Development - bc02a7cc6)
# 2d micelle simulation

dimension	2

neighbor	0.3 bin
neigh_modify	delay 5

atom_style	bond

# Soft potential push-off

read_data	data.micelle
Reading data file ...
  orthogonal box = (0 0 -0.1) to (35.85686 35.85686 0.1)
  4 by 2 by 1 MPI processor grid
  reading atoms ...
  1200 atoms
  scanning bonds ...
  1 = max bonds/atom
  reading bonds ...
  300 bonds
Finding 1-2 1-3 1-4 neighbors ...
  special bond factors lj:    0        0        0       
  special bond factors coul:  0        0        0       
     2 = max # of 1-2 neighbors
     1 = max # of 1-3 neighbors
     1 = max # of 1-4 neighbors
     2 = max # of special neighbors
  special bonds CPU = 0.001 seconds
  read_data CPU = 0.163 seconds
special_bonds	fene
Finding 1-2 1-3 1-4 neighbors ...
  special bond factors lj:    0        1        1       
  special bond factors coul:  0        1        1       
     2 = max # of 1-2 neighbors
     2 = max # of special neighbors
  special bonds CPU = 0.000 seconds

pair_style	soft 1.12246
pair_coeff	* * 0.0 1.12246

bond_style 	harmonic
bond_coeff	1 50.0 0.75

velocity	all create 0.45 2349852

variable	prefactor equal ramp(1.0,20.0)

fix		1 all nve
fix		2 all temp/rescale 100 0.45 0.45 0.02 1.0
fix		3 all adapt 1 pair soft a * * v_prefactor
fix		4 all enforce2d

thermo		50
run		500
Generated 0 of 6 mixed pair_coeff terms from geometric mixing rule
WARNING: Communication cutoff 1.42246 is shorter than a bond length based estimate of 1.425. This may lead to errors. (src/comm.cpp:723)
Neighbor list info ...
  update: every = 1 steps, delay = 5 steps, check = yes
  max neighbors/atom: 2000, page size: 100000
  master list distance cutoff = 1.42246
  ghost atom cutoff = 1.42246
  binsize = 0.71123, bins = 51 51 1
  1 neighbor lists, perpetual/occasional/extra = 1 0 0
  (1) pair soft, perpetual
      attributes: half, newton on
      pair build: half/bin/newton
      stencil: half/bin/2d
      bin: standard
WARNING: Communication cutoff 1.42246 is shorter than a bond length based estimate of 1.425. This may lead to errors. (src/comm.cpp:723)
Per MPI rank memory allocation (min/avg/max) = 4.122 | 4.122 | 4.122 Mbytes
   Step          Temp          E_pair         E_mol          TotEng         Press     
         0   0.45           0.40003481     2.2200223e-06  0.84966203     0.78952518   
        50   0.54981866     0.93548899     0.068440043    1.5532895      1.9232786    
       100   0.45           0.99659327     0.079228519    1.5254468      3.2135679    
       150   0.86965411     0.90456016     0.07493355     1.8484231      4.3821925    
       200   0.45           1.01454        0.10663502     1.5708         4.7598476    
       250   0.79636561     0.82567712     0.12105337     1.7424325      5.4983899    
       300   0.45           0.86475538     0.11819875     1.4325791      5.8554758    
       350   0.72135464     0.70693069     0.10912636     1.5368106      6.0388247    
       400   0.45           0.75067331     0.14165013     1.3419484      6.3840708    
       450   0.64839221     0.62402486     0.14173679     1.4136135      6.4791009    
       500   0.45           0.66669513     0.13695201     1.2532721      6.807146     
Loop time of 0.0373994 on 8 procs for 500 steps with 1200 atoms

Performance: 5775486.331 tau/day, 13369.181 timesteps/s, 16.043 Matom-step/s
98.8% CPU use with 8 MPI tasks x no OpenMP threads

MPI task timing breakdown:
Section |  min time  |  avg time  |  max time  |%varavg| %total
---------------------------------------------------------------
Pair    | 0.0087606  | 0.0098884  | 0.010582   |   0.6 | 26.44
Bond    | 0.00050358 | 0.00058386 | 0.00066208 |   0.0 |  1.56
Neigh   | 0.0038065  | 0.0038798  | 0.0039569  |   0.1 | 10.37
Comm    | 0.01506    | 0.015696   | 0.017281   |   0.5 | 41.97
Output  | 0.0004476  | 0.00048242 | 0.00068659 |   0.0 |  1.29
Modify  | 0.0037155  | 0.004056   | 0.0045804  |   0.5 | 10.85
Other   |            | 0.002813   |            |       |  7.52

Nlocal:            150 ave         154 max         145 min
Histogram: 1 0 1 1 1 1 0 0 1 2
Nghost:          79.75 ave          86 max          71 min
Histogram: 1 0 0 0 2 1 1 0 2 1
Neighs:         386.75 ave         407 max         361 min
Histogram: 1 0 1 0 1 1 1 1 1 1

Total # of neighbors = 3094
Ave neighs/atom = 2.5783333
Ave special neighs/atom = 0.5
Neighbor list builds = 52
Dangerous builds = 0

unfix		3

# Main run

pair_style	lj/cut 2.5

# solvent/head - full-size and long-range

pair_coeff	1 1 1.0 1.0 2.5
pair_coeff	2 2 1.0 1.0 2.5
pair_coeff	1 2 1.0 1.0 2.5

# tail/tail - size-averaged and long-range

pair_coeff	3 3 1.0 0.75 2.5
pair_coeff	4 4 1.0 0.50 2.5
pair_coeff	3 4 1.0 0.67 2.5

# solvent/tail - full-size and repulsive

pair_coeff	1 3 1.0 1.0 1.12246
pair_coeff	1 4 1.0 1.0 1.12246

# head/tail - size-averaged and repulsive

pair_coeff	2 3 1.0 0.88 1.12246
pair_coeff	2 4 1.0 0.75 1.12246

thermo		50

#dump		1 all atom 2000 dump.micelle

#dump		2 all image 2000 image.*.jpg type type zoom 1.6
#dump_modify	2 pad 5 adiam 1 0.5 adiam 2 1.5 adiam 3 1.0 adiam 4 0.75

#dump		3 all movie 2000 movie.mpg type type zoom 1.6
#dump_modify	3 pad 5 adiam 1 0.5 adiam 2 1.5 adiam 3 1.0 adiam 4 0.75

reset_timestep	0
group solvent   molecule 0
750 atoms in group solvent
group solute    subtract all solvent
450 atoms in group solute
unfix 1
unfix 2
unfix 4
fix		1 solvent nve
fix		2 solvent temp/rescale 100 0.45 0.45 0.02 1.0
fix		5 solute rigid molecule langevin 0.45 0.45 0.5 112211
  150 rigid bodies with 450 atoms
fix		4 all enforce2d
run		500
Generated 0 of 6 mixed pair_coeff terms from geometric mixing rule
Neighbor list info ...
  update: every = 1 steps, delay = 5 steps, check = yes
  max neighbors/atom: 2000, page size: 100000
  master list distance cutoff = 2.8
  ghost atom cutoff = 2.8
  binsize = 1.4, bins = 26 26 1
  1 neighbor lists, perpetual/occasional/extra = 1 0 0
  (1) pair lj/cut, perpetual
      attributes: half, newton on
      pair build: half/bin/newton
      stencil: half/bin/2d
      bin: standard
Per MPI rank memory allocation (min/avg/max) = 5.372 | 5.372 | 5.372 Mbytes
   Step          Temp          E_pair         E_mol          TotEng         Press     
         0   0.45318168    -1.3753652      0.13695201    -0.8705807      1.975423     
        50   0.77436328    -1.6951244      0.13695201    -0.92964749     0.5638704    
       100   2.0929355     -1.7312725      0.13695201     0.10444552     1.2491845    
       150   14.363587     -1.783032       0.13695201     10.012365      11.643067    
       200   29.951271     -1.8014766      0.13695201     22.645923      25.806961    
       250   73.082547     -1.8530271      0.13695201     57.602592      57.809837    
       300   148.59559     -1.8579735      0.13695201     118.88906      114.90994    
       350   340.36249     -1.8867081      0.13695201     274.51113      252.65947    
       400   761.70993     -1.8806382      0.13695201     616.51087      572.60523    
       450   1651.2105     -1.8999734      0.13695201     1338.4695      1253.55      
       500   3749.3543     -1.8443154      0.13696817     3041.5185      2839.49      
Loop time of 0.178209 on 8 procs for 500 steps with 1200 atoms

Performance: 1212057.990 tau/day, 2805.690 timesteps/s, 3.367 Matom-step/s
95.4% CPU use with 8 MPI tasks x no OpenMP threads

MPI task timing breakdown:
Section |  min time  |  avg time  |  max time  |%varavg| %total
---------------------------------------------------------------
Pair    | 0.013336   | 0.014651   | 0.016162   |   0.7 |  8.22
Bond    | 0.00053553 | 0.00063132 | 0.00072232 |   0.0 |  0.35
Neigh   | 0.0061135  | 0.0062776  | 0.0064438  |   0.2 |  3.52
Comm    | 0.020953   | 0.054876   | 0.06159    |   5.5 | 30.79
Output  | 0.00053532 | 0.00062683 | 0.0011848  |   0.0 |  0.35
Modify  | 0.088136   | 0.095057   | 0.12991    |   4.3 | 53.34
Other   |            | 0.00609    |            |       |  3.42

Nlocal:            150 ave         154 max         145 min
Histogram: 1 0 0 2 0 0 3 1 0 1
Nghost:        171.375 ave         178 max         165 min
Histogram: 2 0 0 2 0 0 2 0 1 1
Neighs:        1091.38 ave        1141 max        1026 min
Histogram: 1 1 0 1 0 0 2 0 2 1

Total # of neighbors = 8731
Ave neighs/atom = 7.2758333
Ave special neighs/atom = 0.5
Neighbor list builds = 46
Dangerous builds = 2
unfix 2
unfix 4
unfix 5
fix		5 solute rigid/small molecule
  create bodies CPU = 0.000 seconds
  150 rigid bodies with 450 atoms
  1.3043524 = max distance from body owner to body atom
fix		4 all enforce2d
run		500
Generated 0 of 6 mixed pair_coeff terms from geometric mixing rule
Per MPI rank memory allocation (min/avg/max) = 9.211 | 9.212 | 9.214 Mbytes
   Step          Temp          E_pair         E_mol          TotEng         Press     
       500   1805.6086     -1.9077451      0.13696817     1463.7816      1370.6202    
       550   4553.7994     -1.9050007      0.13699038     3694.3992      3451.3673    
       600   5086.7599     -1.8982457      0.13700833     4126.9922      3855.0195    
       650   6115.4056     -1.903294       0.13702876     4961.9046      4634.0447    
       700   6916.376      -1.9065527      0.13704339     5612.0224      5240.8325    
       750   7543.5231     -1.9010936      0.13706173     6121.0623      5716.2421    
       800   7957.3253     -1.9107466      0.13708101     6456.9221      6029.622     
       850   8313.5734     -1.917469       0.13709497     6746.07        6299.0631    
       900   10143.357     -1.9082598      0.13711444     8231.2537      7685.4696    
       950   10082.966     -1.9159955      0.13713202     8182.2286      7639.6825    
      1000   9518.317      -1.9099468      0.13714626     7723.9278      7211.9211    
Loop time of 0.0795728 on 8 procs for 500 steps with 1200 atoms

Performance: 2714495.461 tau/day, 6283.554 timesteps/s, 7.540 Matom-step/s
98.0% CPU use with 8 MPI tasks x no OpenMP threads

MPI task timing breakdown:
Section |  min time  |  avg time  |  max time  |%varavg| %total
---------------------------------------------------------------
Pair    | 0.013348   | 0.014863   | 0.018385   |   1.2 | 18.68
Bond    | 0.00051778 | 0.00062064 | 0.00072678 |   0.0 |  0.78
Neigh   | 0.0046326  | 0.0047551  | 0.0048784  |   0.1 |  5.98
Comm    | 0.016628   | 0.019902   | 0.022022   |   1.4 | 25.01
Output  | 0.0005795  | 0.00068462 | 0.00096982 |   0.0 |  0.86
Modify  | 0.030588   | 0.031433   | 0.035017   |   0.8 | 39.50
Other   |            | 0.007315   |            |       |  9.19

Nlocal:            150 ave         154 max         145 min
Histogram: 1 0 0 3 0 0 1 0 2 1
Nghost:          171.5 ave         176 max         166 min
Histogram: 2 0 0 0 0 0 2 2 1 1
Neighs:        1092.12 ave        1135 max        1044 min
Histogram: 1 1 0 0 1 2 0 2 0 1

Total # of neighbors = 8737
Ave neighs/atom = 7.2808333
Ave special neighs/atom = 0.5
Neighbor list builds = 38
Dangerous builds = 0
Total wall time: 0:00:00
