LAMMPS (3 Aug 2023 - Development - 5e4761d63)
# 2d micelle simulation

dimension	2

neighbor	0.3 bin
neigh_modify	delay 5

atom_style	bond

# Soft potential push-off

read_data	data.micelle
Reading data file ...
  orthogonal box = (0 0 -0.1) to (35.85686 35.85686 0.1)
  4 by 2 by 1 MPI processor grid
  reading atoms ...
  1200 atoms
  scanning bonds ...
  1 = max bonds/atom
  reading bonds ...
  300 bonds
Finding 1-2 1-3 1-4 neighbors ...
  special bond factors lj:    0        0        0       
  special bond factors coul:  0        0        0       
     2 = max # of 1-2 neighbors
     1 = max # of 1-3 neighbors
     1 = max # of 1-4 neighbors
     2 = max # of special neighbors
  special bonds CPU = 0.001 seconds
  read_data CPU = 0.012 seconds
special_bonds	fene
Finding 1-2 1-3 1-4 neighbors ...
  special bond factors lj:    0        1        1       
  special bond factors coul:  0        1        1       
     2 = max # of 1-2 neighbors
     2 = max # of special neighbors
  special bonds CPU = 0.000 seconds

pair_style	soft 1.12246
pair_coeff	* * 0.0 1.12246

bond_style 	harmonic
bond_coeff	1 50.0 0.75

velocity	all create 0.45 2349852

variable	prefactor equal ramp(1.0,20.0)

fix		1 all nve
fix		2 all temp/rescale 100 0.45 0.45 0.02 1.0
fix		3 all adapt 1 pair soft a * * v_prefactor
fix		4 all enforce2d

thermo		50
run		500
Generated 0 of 6 mixed pair_coeff terms from geometric mixing rule
WARNING: Communication cutoff 1.42246 is shorter than a bond length based estimate of 1.425. This may lead to errors. (src/comm.cpp:723)
Neighbor list info ...
  update: every = 1 steps, delay = 5 steps, check = yes
  max neighbors/atom: 2000, page size: 100000
  master list distance cutoff = 1.42246
  ghost atom cutoff = 1.42246
  binsize = 0.71123, bins = 51 51 1
  1 neighbor lists, perpetual/occasional/extra = 1 0 0
  (1) pair soft, perpetual
      attributes: half, newton on
      pair build: half/bin/newton
      stencil: half/bin/2d
      bin: standard
WARNING: Communication cutoff 1.42246 is shorter than a bond length based estimate of 1.425. This may lead to errors. (src/comm.cpp:723)
Per MPI rank memory allocation (min/avg/max) = 4.122 | 4.122 | 4.122 Mbytes
   Step          Temp          E_pair         E_mol          TotEng         Press     
         0   0.45           0.40003481     2.2200223e-06  0.84966203     0.78952518   
        50   0.54981866     0.93548899     0.068440043    1.5532895      1.9232786    
       100   0.45           0.99659327     0.079228519    1.5254468      3.2135679    
       150   0.86965411     0.90456016     0.07493355     1.8484231      4.3821925    
       200   0.45           1.01454        0.10663502     1.5708         4.7598476    
       250   0.79636561     0.82567712     0.12105337     1.7424325      5.4983899    
       300   0.45           0.86475538     0.11819875     1.4325791      5.8554758    
       350   0.72135464     0.70693069     0.10912636     1.5368106      6.0388247    
       400   0.45           0.75067331     0.14165013     1.3419484      6.3840708    
       450   0.64839221     0.62402486     0.14173679     1.4136135      6.4791009    
       500   0.45           0.66669513     0.13695201     1.2532721      6.807146     
Loop time of 0.0363839 on 8 procs for 500 steps with 1200 atoms

Performance: 5936687.230 tau/day, 13742.332 timesteps/s, 16.491 Matom-step/s
98.7% CPU use with 8 MPI tasks x no OpenMP threads

MPI task timing breakdown:
Section |  min time  |  avg time  |  max time  |%varavg| %total
---------------------------------------------------------------
Pair    | 0.0058627  | 0.0082574  | 0.011255   |   2.2 | 22.70
Bond    | 0.00030121 | 0.0004758  | 0.00070862 |   0.0 |  1.31
Neigh   | 0.0040992  | 0.004225   | 0.0043321  |   0.1 | 11.61
Comm    | 0.013601   | 0.01735    | 0.020593   |   2.0 | 47.69
Output  | 0.00035134 | 0.00037453 | 0.00043651 |   0.0 |  1.03
Modify  | 0.0021087  | 0.0029705  | 0.0042939  |   1.5 |  8.16
Other   |            | 0.002731   |            |       |  7.51

Nlocal:            150 ave         154 max         145 min
Histogram: 1 0 1 1 1 1 0 0 1 2
Nghost:          79.75 ave          86 max          71 min
Histogram: 1 0 0 0 2 1 1 0 2 1
Neighs:         386.75 ave         407 max         361 min
Histogram: 1 0 1 0 1 1 1 1 1 1

Total # of neighbors = 3094
Ave neighs/atom = 2.5783333
Ave special neighs/atom = 0.5
Neighbor list builds = 52
Dangerous builds = 0

unfix		3

# Main run

pair_style	lj/cut 2.5

# solvent/head - full-size and long-range

pair_coeff	1 1 1.0 1.0 2.5
pair_coeff	2 2 1.0 1.0 2.5
pair_coeff	1 2 1.0 1.0 2.5

# tail/tail - size-averaged and long-range

pair_coeff	3 3 1.0 0.75 2.5
pair_coeff	4 4 1.0 0.50 2.5
pair_coeff	3 4 1.0 0.67 2.5

# solvent/tail - full-size and repulsive

pair_coeff	1 3 1.0 1.0 1.12246
pair_coeff	1 4 1.0 1.0 1.12246

# head/tail - size-averaged and repulsive

pair_coeff	2 3 1.0 0.88 1.12246
pair_coeff	2 4 1.0 0.75 1.12246

thermo		50

#dump		1 all atom 2000 dump.micelle

#dump		2 all image 2000 image.*.jpg type type zoom 1.6
#dump_modify	2 pad 5 adiam 1 0.5 adiam 2 1.5 adiam 3 1.0 adiam 4 0.75

#dump		3 all movie 2000 movie.mpg type type zoom 1.6
#dump_modify	3 pad 5 adiam 1 0.5 adiam 2 1.5 adiam 3 1.0 adiam 4 0.75

reset_timestep	0
group solvent   molecule 0
750 atoms in group solvent
group solute    subtract all solvent
450 atoms in group solute
unfix 1
unfix 2
unfix 4
fix		1 solvent nve
fix		2 solvent temp/rescale 100 0.45 0.45 0.02 1.0
fix		5 solute rigid molecule langevin 0.45 0.45 0.5 112211
  150 rigid bodies with 450 atoms
fix		4 all enforce2d
run		500
Generated 0 of 6 mixed pair_coeff terms from geometric mixing rule
Neighbor list info ...
  update: every = 1 steps, delay = 5 steps, check = yes
  max neighbors/atom: 2000, page size: 100000
  master list distance cutoff = 2.8
  ghost atom cutoff = 2.8
  binsize = 1.4, bins = 26 26 1
  1 neighbor lists, perpetual/occasional/extra = 1 0 0
  (1) pair lj/cut, perpetual
      attributes: half, newton on
      pair build: half/bin/newton
      stencil: half/bin/2d
      bin: standard
Per MPI rank memory allocation (min/avg/max) = 5.372 | 5.372 | 5.372 Mbytes
   Step          Temp          E_pair         E_mol          TotEng         Press     
         0   0.45318168    -1.3753652      0.13695201    -0.8705807      1.975423     
        50   0.77436325    -1.6951244      0.13695208    -0.92964744     0.56387057   
       100   1.6952241     -1.7312762      0.13695047    -0.21836885     0.94789765   
       150   9.7837741     -1.7830358      0.13695011     6.2950777      8.1738237    
       200   29.310998     -1.8014575      0.13696044     22.126263      25.322733    
       250   28.673166     -1.853002       0.13697116     21.557022      24.168814    
       300   83.003531     -1.8579929      0.13698236     65.650188      65.221281    
       350   178.61413     -1.8851227      0.13699411     143.22701      130.12595    
       400   289.52971     -1.8796966      0.13700454     233.25892      214.89833    
       450   1022.4975     -1.8999958      0.13701579     828.16414      777.2669     
       500   1867.5417     -1.9060688      0.13702898     1514.0523      1413.915     
Loop time of 0.113983 on 8 procs for 500 steps with 1200 atoms

Performance: 1895017.928 tau/day, 4386.616 timesteps/s, 5.264 Matom-step/s
97.3% CPU use with 8 MPI tasks x no OpenMP threads

MPI task timing breakdown:
Section |  min time  |  avg time  |  max time  |%varavg| %total
---------------------------------------------------------------
Pair    | 0.0081282  | 0.010604   | 0.014308   |   2.2 |  9.30
Bond    | 0.00030461 | 0.00044208 | 0.00068805 |   0.0 |  0.39
Neigh   | 0.011122   | 0.011382   | 0.01154    |   0.1 |  9.99
Comm    | 0.017479   | 0.0237     | 0.028378   |   2.2 | 20.79
Output  | 0.00045794 | 0.00049135 | 0.00055537 |   0.0 |  0.43
Modify  | 0.05615    | 0.060243   | 0.067378   |   1.4 | 52.85
Other   |            | 0.007121   |            |       |  6.25

Nlocal:            150 ave         154 max         145 min
Histogram: 1 0 0 2 0 0 3 1 0 1
Nghost:        171.125 ave         178 max         165 min
Histogram: 2 0 0 2 0 1 1 1 0 1
Neighs:        1091.12 ave        1143 max        1024 min
Histogram: 1 1 0 1 0 0 2 0 2 1

Total # of neighbors = 8729
Ave neighs/atom = 7.2741667
Ave special neighs/atom = 0.5
Neighbor list builds = 46
Dangerous builds = 2
unfix 2
unfix 4
unfix 5
fix		5 solute rigid/small molecule
  create bodies CPU = 0.000 seconds
  150 rigid bodies with 450 atoms
  1.3043524 = max distance from body owner to body atom
fix		4 all enforce2d
run		500
Generated 0 of 6 mixed pair_coeff terms from geometric mixing rule
Per MPI rank memory allocation (min/avg/max) = 9.211 | 9.212 | 9.214 Mbytes
   Step          Temp          E_pair         E_mol          TotEng         Press     
       500   1.8285472     -1.9060688      0.13702898    -0.28486904     4.3734791    
       550   488.13026     -1.7899397      0.13704115     394.54616      372.63402    
       600   211.24222     -1.7816802      0.13704777     169.81363      162.88839    
       650   260.4134      -1.7845447      0.13705484     209.72139      200.2632     
       700   1229.4189     -1.7911665      0.13706282     996.22424      934.31851    
       750   755.51953     -1.783092       0.13706941     611.58399      575.39678    
       800   176.83626     -1.7609494      0.13707676     141.90823      137.35852    
       850   1430.4106     -1.751311       0.13708497     1159.4023      1087.1327    
       900   2079.0035     -1.7634907      0.13709166     1685.8314      1578.0972    
       950   796.12686     -1.7322792      0.13709947     644.59445      606.46648    
      1000   1219.2666     -1.7828669      0.13710763     987.99229      926.87408    
Loop time of 0.0607386 on 8 procs for 500 steps with 1200 atoms

Performance: 3556221.996 tau/day, 8231.995 timesteps/s, 9.878 Matom-step/s
99.9% CPU use with 8 MPI tasks x no OpenMP threads

MPI task timing breakdown:
Section |  min time  |  avg time  |  max time  |%varavg| %total
---------------------------------------------------------------
Pair    | 0.0072571  | 0.0094849  | 0.013051   |   1.9 | 15.62
Bond    | 0.00030238 | 0.00038781 | 0.00053448 |   0.0 |  0.64
Neigh   | 0.0062465  | 0.0063001  | 0.0063434  |   0.0 | 10.37
Comm    | 0.014755   | 0.017725   | 0.019731   |   1.4 | 29.18
Output  | 0.00037713 | 0.00039268 | 0.00044098 |   0.0 |  0.65
Modify  | 0.023769   | 0.024407   | 0.025392   |   0.4 | 40.18
Other   |            | 0.002041   |            |       |  3.36

Nlocal:            150 ave         160 max         139 min
Histogram: 2 0 0 1 1 0 2 0 0 2
Nghost:         171.75 ave         181 max         161 min
Histogram: 1 0 0 2 1 0 1 0 2 1
Neighs:        1100.75 ave        1239 max         919 min
Histogram: 1 0 0 2 0 1 0 2 0 2

Total # of neighbors = 8806
Ave neighs/atom = 7.3383333
Ave special neighs/atom = 0.5
Neighbor list builds = 60
Dangerous builds = 12
Total wall time: 0:00:00
